# step Hamiltonian StressXX CellTensor1 CellTensor2 CellTensor3 CellTensor4 
0 3.2994422166e+00 -8.5450425285e-03 2.2220832177e+00 -3.8487610317e+00 2.2220832177e+00 3.8487610317e+00 
100 3.2600443760e+00 -9.5907260960e-03 2.2220832177e+00 -3.8487610317e+00 2.2220832177e+00 3.8487610317e+00 
200 3.2243750785e+00 -9.9804921884e-03 2.2222990260e+00 -3.8491348227e+00 2.2222990260e+00 3.8491348227e+00 
300 3.1920619119e+00 -9.8705277990e-03 2.2225235831e+00 -3.8495237670e+00 2.2225235831e+00 3.8495237670e+00 
400 3.1627658675e+00 -9.3269699327e-03 2.2227456436e+00 -3.8499083870e+00 2.2227456436e+00 3.8499083870e+00 
500 3.1361808429e+00 -8.4159781795e-03 2.2229554543e+00 -3.8502717898e+00 2.2229554543e+00 3.8502717898e+00 
600 3.1120317264e+00 -7.2018440259e-03 2.2231447540e+00 -3.8505996666e+00 2.2231447540e+00 3.8505996666e+00 
700 3.0900724764e+00 -5.7453816373e-03 2.2233067302e+00 -3.8508802176e+00 2.2233067302e+00 3.8508802176e+00 
800 3.0700841284e+00 -4.1026516839e-03 2.2234359395e+00 -3.8511040146e+00 2.2234359395e+00 3.8511040146e+00 
900 3.0518727039e+00 -2.3240449459e-03 2.2235281994e+00 -3.8512638135e+00 2.2235281994e+00 3.8512638135e+00 
1000 3.0352670215e+00 -4.5372679433e-04 2.2235804599e+00 -3.8513543313e+00 2.2235804599e+00 3.8513543313e+00 
1100 3.0201164431e+00 1.4705800676e-03 2.2235906626e+00 -3.8513720028e+00 2.2235906626e+00 3.8513720028e+00 
1200 3.0062885992e+00 3.4175165691e-03 2.2235575950e+00 -3.8513147280e+00 2.2235575950e+00 3.8513147280e+00 
1300 2.9936671489e+00 5.3617672366e-03 2.2234807475e+00 -3.8511816242e+00 2.2234807475e+00 3.8511816242e+00 
1400 2.9821496288e+00 7.2835610543e-03 2.2233601771e+00 -3.8509727902e+00 2.2233601771e+00 3.8509727902e+00 
1500 2.9716454405e+00 9.1680553212e-03 2.2231963828e+00 -3.8506890903e+00 2.2231963828e+00 3.8506890903e+00 
1600 2.9620740142e+00 1.1004659519e-02 2.2229901952e+00 -3.8503319627e+00 2.2229901952e+00 3.8503319627e+00 
1700 2.9533631759e+00 1.2786347447e-02 2.2227426805e+00 -3.8499032547e+00 2.2227426805e+00 3.8499032547e+00 
1800 2.9454477296e+00 1.4508995152e-02 2.2224550612e+00 -3.8494050835e+00 2.2224550612e+00 3.8494050835e+00 
1900 2.9382682573e+00 1.6170771106e-02 2.2221286510e+00 -3.8488397245e+00 2.2221286510e+00 3.8488397245e+00 
2000 2.9317701265e+00 1.7771594756e-02 2.2217648033e+00 -3.8482095217e+00 2.2217648033e+00 3.8482095217e+00 
2100 2.9259026902e+00 1.9312670950e-02 2.2213648721e+00 -3.8475168206e+00 2.2213648721e+00 3.8475168206e+00 
2200 2.9206186575e+00 2.0796100934e-02 2.2209301834e+00 -3.8467639178e+00 2.2209301834e+00 3.8467639178e+00 
2300 2.9158736114e+00 2.2224565945e-02 2.2204620154e+00 -3.8459530270e+00 2.2204620154e+00 3.8459530270e+00 
2400 2.9116256501e+00 2.3601076393e-02 2.2199615851e+00 -3.8450862562e+00 2.2199615851e+00 3.8450862562e+00 
2500 2.9078351274e+00 2.4928778154e-02 2.2194300413e+00 -3.8441655954e+00 2.2194300413e+00 3.8441655954e+00 
2600 2.9044644715e+00 2.6210807067e-02 2.2188684619e+00 -3.8431929112e+00 2.2188684619e+00 3.8431929112e+00 
2700 2.9014780633e+00 2.7450183074e-02 2.2182778535e+00 -3.8421699476e+00 2.2182778535e+00 3.8421699476e+00 
2800 2.8988421573e+00 2.8649736220e-02 2.2176591550e+00 -3.8410983303e+00 2.2176591550e+00 3.8410983303e+00 
2900 2.8965248320e+00 2.9812057769e-02 2.2170132409e+00 -3.8399795743e+00 2.2170132409e+00 3.8399795743e+00 
3000 2.8944959592e+00 3.0939470757e-02 2.2163409276e+00 -3.8388150935e+00 2.2163409276e+00 3.8388150935e+00 
3100 2.8927271833e+00 3.2034015356e-02 2.2156429789e+00 -3.8376062108e+00 2.2156429789e+00 3.8376062108e+00 
3200 2.8911919045e+00 3.3097445367e-02 2.2149201126e+00 -3.8363541696e+00 2.2149201126e+00 3.8363541696e+00 
3300 2.8898652611e+00 3.4131232931e-02 2.2141730070e+00 -3.8350601448e+00 2.2141730070e+00 3.8350601448e+00 
3400 2.8887241079e+00 3.5136579263e-02 2.2134023072e+00 -3.8337252537e+00 2.2134023072e+00 3.8337252537e+00 
3500 2.8877469883e+00 3.6114429673e-02 2.2126086314e+00 -3.8323505668e+00 2.2126086314e+00 3.8323505668e+00 
3600 2.8869140996e+00 3.7065491625e-02 2.2117925763e+00 -3.8309371180e+00 2.2117925763e+00 3.8309371180e+00 
3700 2.8862072505e+00 3.7990254834e-02 2.2109547231e+00 -3.8294859137e+00 2.2109547231e+00 3.8294859137e+00 
3800 2.8856098118e+00 3.8889012682e-02 2.2100956419e+00 -3.8279979413e+00 2.2100956419e+00 3.8279979413e+00 
3900 2.8851066588e+00 3.9761884365e-02 2.2092158964e+00 -3.8264741775e+00 2.2092158964e+00 3.8264741775e+00 
4000 2.8846841096e+00 4.0608837340e-02 2.2083160481e+00 -3.8249155945e+00 2.2083160481e+00 3.8249155945e+00 
4100 2.8843298559e+00 4.1429709701e-02 2.2073966594e+00 -3.8233231665e+00 2.2073966594e+00 3.8233231665e+00 
4200 2.8840328914e+00 4.2224232192e-02 2.2064582967e+00 -3.8216978747e+00 2.2064582967e+00 3.8216978747e+00 
4300 2.8837834362e+00 4.2992049609e-02 2.2055015331e+00 -3.8200407115e+00 2.2055015331e+00 3.8200407115e+00 
4400 2.8835728583e+00 4.3732741375e-02 2.2045269502e+00 -3.8183526844e+00 2.2045269502e+00 3.8183526844e+00 
4500 2.8833935954e+00 4.4445841099e-02 2.2035351397e+00 -3.8166348182e+00 2.2035351397e+00 3.8166348182e+00 
4600 2.8832390750e+00 4.5130854970e-02 2.2025267045e+00 -3.8148881572e+00 2.2025267045e+00 3.8148881572e+00 
4700 2.8831036356e+00 4.5787278844e-02 2.2015022594e+00 -3.8131137662e+00 2.2015022594e+00 3.8131137662e+00 
4800 2.8829824493e+00 4.6414613921e-02 2.2004624314e+00 -3.8113127313e+00 2.2004624314e+00 3.8113127313e+00 
4900 2.8828714457e+00 4.7012380926e-02 2.1994078598e+00 -3.8094861597e+00 2.1994078598e+00 3.8094861597e+00 
5000 2.8827672388e+00 4.7580132727e-02 2.1983391955e+00 -3.8076351789e+00 2.1983391955e+00 3.8076351789e+00 
5100 2.8826670569e+00 4.8117465374e-02 2.1972571007e+00 -3.8057609358e+00 2.1972571007e+00 3.8057609358e+00 
5200 2.8825686750e+00 4.8624027523e-02 2.1961622478e+00 -3.8038645949e+00 2.1961622478e+00 3.8038645949e+00 
5300 2.8824703522e+00 4.9099528288e-02 2.1950553182e+00 -3.8019473366e+00 2.1950553182e+00 3.8019473366e+00 
5400 2.8823707715e+00 4.9543743522e-02 2.1939370011e+00 -3.8000103546e+00 2.1939370011e+00 3.8000103546e+00 
5500 2.8822689845e+00 4.9956520616e-02 2.1928079921e+00 -3.7980548536e+00 2.1928079921e+00 3.7980548536e+00 
5600 2.8821643599e+00 5.0337781862e-02 2.1916689915e+00 -3.7960820467e+00 2.1916689915e+00 3.7960820467e+00 
5700 2.8820565363e+00 5.0687526487e-02 2.1905207026e+00 -3.7940931520e+00 2.1905207026e+00 3.7940931520e+00 
5800 2.8819453786e+00 5.1005831442e-02 2.1893638302e+00 -3.7920893901e+00 2.1893638302e+00 3.7920893901e+00 
5900 2.8818309387e+00 5.1292851067e-02 2.1881990784e+00 -3.7900719809e+00 2.1881990784e+00 3.7900719809e+00 
6000 2.8817134204e+00 5.1548815750e-02 2.1870271496e+00 -3.7880421407e+00 2.1870271496e+00 3.7880421407e+00 
6100 2.8815931470e+00 5.1774029690e-02 2.1858487421e+00 -3.7860010791e+00 2.1858487421e+00 3.7860010791e+00 
6200 2.8814705338e+00 5.1968867890e-02 2.1846645488e+00 -3.7839499960e+00 2.1846645488e+00 3.7839499960e+00 
6300 2.8813460630e+00 5.2133772510e-02 2.1834752552e+00 -3.7818900791e+00 2.1834752552e+00 3.7818900791e+00 
6400 2.8812202620e+00 5.2269248680e-02 2.1822815385e+00 -3.7798225011e+00 2.1822815385e+00 3.7798225011e+00 
6500 2.8810936847e+00 5.2375859908e-02 2.1810840654e+00 -3.7777484169e+00 2.1810840654e+00 3.7777484169e+00 
6600 2.8809668955e+00 5.2454223161e-02 2.1798834916e+00 -3.7756689620e+00 2.1798834916e+00 3.7756689620e+00 
6700 2.8808404559e+00 5.2505003755e-02 2.1786804595e+00 -3.7735852493e+00 2.1786804595e+00 3.7735852493e+00 
6800 2.8807149133e+00 5.2528910103e-02 2.1774755980e+00 -3.7714983681e+00 2.1774755980e+00 3.7714983681e+00 
6900 2.8805907918e+00 5.2526688445e-02 2.1762695212e+00 -3.7694093817e+00 2.1762695212e+00 3.7694093817e+00 
7000 2.8804685847e+00 5.2499117599e-02 2.1750628271e+00 -3.7673193262e+00 2.1750628271e+00 3.7673193262e+00 
7100 2.8803487492e+00 5.2447003816e-02 2.1738560974e+00 -3.7652292090e+00 2.1738560974e+00 3.7652292090e+00 
7200 2.8802317022e+00 5.2371175786e-02 2.1726498963e+00 -3.7631400075e+00 2.1726498963e+00 3.7631400075e+00 
7300 2.8801178172e+00 5.2272479847e-02 2.1714447705e+00 -3.7610526683e+00 2.1714447705e+00 3.7610526683e+00 
7400 2.8800074228e+00 5.2151775424e-02 2.1702412481e+00 -3.7589681064e+00 2.1702412481e+00 3.7589681064e+00 
7500 2.8799008019e+00 5.2009930735e-02 2.1690398388e+00 -3.7568872044e+00 2.1690398388e+00 3.7568872044e+00 
7600 2.8797981916e+00 5.1847818784e-02 2.1678410333e+00 -3.7548108124e+00 2.1678410333e+00 3.7548108124e+00 
7700 2.8796997844e+00 5.1666313655e-02 2.1666453033e+00 -3.7527397474e+00 2.1666453033e+00 3.7527397474e+00 
7800 2.8796057289e+00 5.1466287114e-02 2.1654531015e+00 -3.7506747931e+00 2.1654531015e+00 3.7506747931e+00 
7900 2.8795161322e+00 5.1248605523e-02 2.1642648611e+00 -3.7486167004e+00 2.1642648611e+00 3.7486167004e+00 
8000 2.8794310621e+00 5.1014127068e-02 2.1630809965e+00 -3.7465661868e+00 2.1630809965e+00 3.7465661868e+00 
8100 2.8793505491e+00 5.0763699290e-02 2.1619019031e+00 -3.7445239371e+00 2.1619019031e+00 3.7445239371e+00 
8200 2.8792745896e+00 5.0498156912e-02 2.1607279575e+00 -3.7424906038e+00 2.1607279575e+00 3.7424906038e+00 
8300 2.8792031487e+00 5.0218319949e-02 2.1595595179e+00 -3.7404668070e+00 2.1595595179e+00 3.7404668070e+00 
8400 2.8791361631e+00 4.9924992089e-02 2.1583969241e+00 -3.7384531355e+00 2.1583969241e+00 3.7384531355e+00 
8500 2.8790735438e+00 4.9618959323e-02 2.1572404980e+00 -3.7364501467e+00 2.1572404980e+00 3.7364501467e+00 
8600 2.8790151797e+00 4.9300988819e-02 2.1560905440e+00 -3.7344583679e+00 2.1560905440e+00 3.7344583679e+00 
8700 2.8789609402e+00 4.8971828002e-02 2.1549473492e+00 -3.7324782964e+00 2.1549473492e+00 3.7324782964e+00 
8800 2.8789106778e+00 4.8632203846e-02 2.1538111840e+00 -3.7305104006e+00 2.1538111840e+00 3.7305104006e+00 
8900 2.8788642314e+00 4.8282822331e-02 2.1526823025e+00 -3.7285551205e+00 2.1526823025e+00 3.7285551205e+00 
9000 2.8788214285e+00 4.7924368078e-02 2.1515609427e+00 -3.7266128683e+00 2.1515609427e+00 3.7266128683e+00 
9100 2.8787820880e+00 4.7557504117e-02 2.1504473272e+00 -3.7246840297e+00 2.1504473272e+00 3.7246840297e+00 
9200 2.8787460223e+00 4.7182871785e-02 2.1493416636e+00 -3.7227689642e+00 2.1493416636e+00 3.7227689642e+00 
9300 2.8787130395e+00 4.6801090735e-02 2.1482441449e+00 -3.7208680060e+00 2.1482441449e+00 3.7208680060e+00 
9400 2.8786829455e+00 4.6412759040e-02 2.1471549500e+00 -3.7189814650e+00 2.1471549500e+00 3.7189814650e+00 
9500 2.8786555457e+00 4.6018453377e-02 2.1460742440e+00 -3.7171096274e+00 2.1460742440e+00 3.7171096274e+00 
9600 2.8786306466e+00 4.5618729278e-02 2.1450021790e+00 -3.7152527564e+00 2.1450021790e+00 3.7152527564e+00 
9700 2.8786080576e+00 4.5214121439e-02 2.1439388944e+00 -3.7134110934e+00 2.1439388944e+00 3.7134110934e+00 
9800 2.8785875916e+00 4.4805144070e-02 2.1428845170e+00 -3.7115848582e+00 2.1428845170e+00 3.7115848582e+00 
9900 2.8785690670e+00 4.4392291284e-02 2.1418391620e+00 -3.7097742503e+00 2.1418391620e+00 3.7097742503e+00 
10000 2.8785523078e+00 4.3976037507e-02 2.1408029332e+00 -3.7079794493e+00 2.1408029332e+00 3.7079794493e+00 
10100 2.8785371451e+00 4.3556837917e-02 2.1397759232e+00 -3.7062006159e+00 2.1397759232e+00 3.7062006159e+00 
10200 2.8785234173e+00 4.3135128882e-02 2.1387582143e+00 -3.7044378922e+00 2.1387582143e+00 3.7044378922e+00 
10300 2.8785109709e+00 4.2711328418e-02 2.1377498783e+00 -3.7026914030e+00 2.1377498783e+00 3.7026914030e+00 
10400 2.8784996606e+00 4.2285836639e-02 2.1367509775e+00 -3.7009612561e+00 2.1367509775e+00 3.7009612561e+00 
10500 2.8784893501e+00 4.1859036217e-02 2.1357615648e+00 -3.6992475431e+00 2.1357615648e+00 3.6992475431e+00 
10600 2.8784799115e+00 4.1431292826e-02 2.1347816840e+00 -3.6975503398e+00 2.1347816840e+00 3.6975503398e+00 
10700 2.8784712263e+00 4.1002955590e-02 2.1338113704e+00 -3.6958697074e+00 2.1338113704e+00 3.6958697074e+00 
10800 2.8784631844e+00 4.0574357518e-02 2.1328506511e+00 -3.6942056927e+00 2.1328506511e+00 3.6942056927e+00 
10900 2.8784556850e+00 4.0145815927e-02 2.1318995451e+00 -3.6925583288e+00 2.1318995451e+00 3.6925583288e+00 
11000 2.8784486355e+00 3.9717632866e-02 2.1309580641e+00 -3.6909276358e+00 2.1309580641e+00 3.6909276358e+00 
11100 2.8784419521e+00 3.9290095514e-02 2.1300262124e+00 -3.6893136214e+00 2.1300262124e+00 3.6893136214e+00 
11200 2.8784355590e+00 3.8863476583e-02 2.1291039876e+00 -3.6877162812e+00 2.1291039876e+00 3.6877162812e+00 
11300 2.8784293882e+00 3.8438034700e-02 2.1281913808e+00 -3.6861355997e+00 2.1281913808e+00 3.6861355997e+00 
11400 2.8784233794e+00 3.8014014787e-02 2.1272883766e+00 -3.6845715506e+00 2.1272883766e+00 3.6845715506e+00 
11500 2.8784174793e+00 3.7591648424e-02 2.1263949539e+00 -3.6830240971e+00 2.1263949539e+00 3.6830240971e+00 
11600 2.8784116415e+00 3.7171154213e-02 2.1255110861e+00 -3.6814931931e+00 2.1255110861e+00 3.6814931931e+00 
11700 2.8784058256e+00 3.6752738124e-02 2.1246367409e+00 -3.6799787829e+00 2.1246367409e+00 3.6799787829e+00 
11800 2.8783999975e+00 3.6336593844e-02 2.1237718815e+00 -3.6784808024e+00 2.1237718815e+00 3.6784808024e+00 
11900 2.8783941285e+00 3.5922903115e-02 2.1229164659e+00 -3.6769991791e+00 2.1229164659e+00 3.6769991791e+00 
12000 2.8783881948e+00 3.5511836064e-02 2.1220704477e+00 -3.6755338327e+00 2.1220704477e+00 3.6755338327e+00 
12100 2.8783821776e+00 3.5103551537e-02 2.1212337766e+00 -3.6740846758e+00 2.1212337766e+00 3.6740846758e+00 
12200 2.8783760620e+00 3.4698197417e-02 2.1204063980e+00 -3.6726516140e+00 2.1204063980e+00 3.6726516140e+00 
12300 2.8783698372e+00 3.4295910954e-02 2.1195882538e+00 -3.6712345467e+00 2.1195882538e+00 3.6712345467e+00 
12400 2.8783634958e+00 3.3896819078e-02 2.1187792823e+00 -3.6698333670e+00 2.1187792823e+00 3.6698333670e+00 
12500 2.8783570334e+00 3.3501038716e-02 2.1179794188e+00 -3.6684479627e+00 2.1179794188e+00 3.6684479627e+00 
12600 2.8783504486e+00 3.3108677114e-02 2.1171885954e+00 -3.6670782164e+00 2.1171885954e+00 3.6670782164e+00 
12700 2.8783437421e+00 3.2719832141e-02 2.1164067416e+00 -3.6657240060e+00 2.1164067416e+00 3.6657240060e+00 
12800 2.8783369169e+00 3.2334592612e-02 2.1156337843e+00 -3.6643852047e+00 2.1156337843e+00 3.6643852047e+00 
12900 2.8783299777e+00 3.1953038591e-02 2.1148696482e+00 -3.6630616820e+00 2.1148696482e+00 3.6630616820e+00 
13000 2.8783229308e+00 3.1575241707e-02 2.1141142556e+00 -3.6617533038e+00 2.1141142556e+00 3.6617533038e+00 
13100 2.8783157838e+00 3.1201265462e-02 2.1133675273e+00 -3.6604599323e+00 2.1133675273e+00 3.6604599323e+00 
13200 2.8783085451e+00 3.0831165542e-02 2.1126293819e+00 -3.6591814270e+00 2.1126293819e+00 3.6591814270e+00 
13300 2.8783012241e+00 3.0464990121e-02 2.1118997369e+00 -3.6579176448e+00 2.1118997369e+00 3.6579176448e+00 
13400 2.8782938309e+00 3.0102780169e-02 2.1111785082e+00 -3.6566684400e+00 2.1111785082e+00 3.6566684400e+00 
13500 2.8782863757e+00 2.9744569759e-02 2.1104656105e+00 -3.6554336650e+00 2.1104656105e+00 3.6554336650e+00 
13600 2.8782788694e+00 2.9390386368e-02 2.1097609576e+00 -3.6542131704e+00 2.1097609576e+00 3.6542131704e+00 
13700 2.8782713227e+00 2.9040251176e-02 2.1090644624e+00 -3.6530068052e+00 2.1090644624e+00 3.6530068052e+00 
13800 2.8782637465e+00 2.8694179369e-02 2.1083760370e+00 -3.6518144175e+00 2.1083760370e+00 3.6518144175e+00 
13900 2.8782561514e+00 2.8352180431e-02 2.1076955930e+00 -3.6506358539e+00 2.1076955930e+00 3.6506358539e+00 
14000 2.8782485481e+00 2.8014258438e-02 2.1070230416e+00 -3.6494709608e+00 2.1070230416e+00 3.6494709608e+00 
14100 2.8782409467e+00 2.7680412345e-02 2.1063582936e+00 -3.6483195835e+00 2.1063582936e+00 3.6483195835e+00 
14200 2.8782333572e+00 2.7350636275e-02 2.1057012598e+00 -3.6471815676e+00 2.1057012598e+00 3.6471815676e+00 
14300 2.8782257892e+00 2.7024919792e-02 2.1050518508e+00 -3.6460567581e+00 2.1050518508e+00 3.6460567581e+00 
14400 2.8782182515e+00 2.6703248185e-02 2.1044099771e+00 -3.6449450003e+00 2.1044099771e+00 3.6449450003e+00 
14500 2.8782107530e+00 2.6385602732e-02 2.1037755497e+00 -3.6438461399e+00 2.1037755497e+00 3.6438461399e+00 
14600 2.8782033016e+00 2.6071960968e-02 2.1031484797e+00 -3.6427600227e+00 2.1031484797e+00 3.6427600227e+00 
14700 2.8781959048e+00 2.5762296944e-02 2.1025286785e+00 -3.6416864955e+00 2.1025286785e+00 3.6416864955e+00 
14800 2.8781885698e+00 2.5456581478e-02 2.1019160580e+00 -3.6406254056e+00 2.1019160580e+00 3.6406254056e+00 
14900 2.8781813029e+00 2.5154782404e-02 2.1013105305e+00 -3.6395766012e+00 2.1013105305e+00 3.6395766012e+00 
15000 2.8781741102e+00 2.4856864809e-02 2.1007120090e+00 -3.6385399317e+00 2.1007120090e+00 3.6385399317e+00 
15100 2.8781669969e+00 2.4562791269e-02 2.1001204073e+00 -3.6375152474e+00 2.1001204073e+00 3.6375152474e+00 
15200 2.8781599681e+00 2.4272522070e-02 2.0995356396e+00 -3.6365024001e+00 2.0995356396e+00 3.6365024001e+00 
15300 2.8781530280e+00 2.3986015429e-02 2.0989576211e+00 -3.6355012427e+00 2.0989576211e+00 3.6355012427e+00 
15400 2.8781461805e+00 2.3703227703e-02 2.0983862678e+00 -3.6345116298e+00 2.0983862678e+00 3.6345116298e+00 
15500 2.8781394291e+00 2.3424113593e-02 2.0978214966e+00 -3.6335334173e+00 2.0978214966e+00 3.6335334173e+00 
15600 2.8781327766e+00 2.3148626334e-02 2.0972632252e+00 -3.6325664629e+00 2.0972632252e+00 3.6325664629e+00 
15700 2.8781262256e+00 2.2876717888e-02 2.0967113724e+00 -3.6316106259e+00 2.0967113724e+00 3.6316106259e+00 
15800 2.8781197782e+00 2.2608339118e-02 2.0961658580e+00 -3.6306657672e+00 2.0961658580e+00 3.6306657672e+00 
15900 2.8781134360e+00 2.2343439959e-02 2.0956266028e+00 -3.6297317497e+00 2.0956266028e+00 3.6297317497e+00 
16000 2.8781072006e+00 2.2081969580e-02 2.0950935285e+00 -3.6288084379e+00 2.0950935285e+00 3.6288084379e+00 
16100 2.8781010728e+00 2.1823876542e-02 2.0945665581e+00 -3.6278956985e+00 2.0945665581e+00 3.6278956985e+00 
16200 2.8780950535e+00 2.1569108938e-02 2.0940456157e+00 -3.6269933998e+00 2.0940456157e+00 3.6269933998e+00 
16300 2.8780891430e+00 2.1317614536e-02 2.0935306263e+00 -3.6261014120e+00 2.0935306263e+00 3.6261014120e+00 
16400 2.8780833415e+00 2.1069340907e-02 2.0930215163e+00 -3.6252196075e+00 2.0930215163e+00 3.6252196075e+00 
16500 2.8780776489e+00 2.0824235547e-02 2.0925182129e+00 -3.6243478605e+00 2.0925182129e+00 3.6243478605e+00 
16600 2.8780720650e+00 2.0582245995e-02 2.0920206447e+00 -3.6234860471e+00 2.0920206447e+00 3.6234860471e+00 
16700 2.8780665893e+00 2.0343319936e-02 2.0915287413e+00 -3.6226340455e+00 2.0915287413e+00 3.6226340455e+00 
16800 2.8780612210e+00 2.0107405303e-02 2.0910424336e+00 -3.6217917358e+00 2.0910424336e+00 3.6217917358e+00 
16900 2.8780559594e+00 1.9874450371e-02 2.0905616535e+00 -3.6209590001e+00 2.0905616535e+00 3.6209590001e+00 
17000 2.8780508036e+00 1.9644403838e-02 2.0900863339e+00 -3.6201357225e+00 2.0900863339e+00 3.6201357225e+00 
17100 2.8780457524e+00 1.9417214911e-02 2.0896164091e+00 -3.6193217889e+00 2.0896164091e+00 3.6193217889e+00 
17200 2.8780408047e+00 1.9192833371e-02 2.0891518144e+00 -3.6185170872e+00 2.0891518144e+00 3.6185170872e+00 
17300 2.8780359591e+00 1.8971209643e-02 2.0886924861e+00 -3.6177215073e+00 2.0886924861e+00 3.6177215073e+00 
17400 2.8780312144e+00 1.8752294853e-02 2.0882383618e+00 -3.6169349409e+00 2.0882383618e+00 3.6169349409e+00 
17500 2.8780265690e+00 1.8536040885e-02 2.0877893799e+00 -3.6161572815e+00 2.0877893799e+00 3.6161572815e+00 
17600 2.8780220216e+00 1.8322400425e-02 2.0873454802e+00 -3.6153884246e+00 2.0873454802e+00 3.6153884246e+00 
17700 2.8780175707e+00 1.8111327006e-02 2.0869066032e+00 -3.6146282673e+00 2.0869066032e+00 3.6146282673e+00 
17800 2.8780132145e+00 1.7902775042e-02 2.0864726906e+00 -3.6138767088e+00 2.0864726906e+00 3.6138767088e+00 
17900 2.8780089517e+00 1.7696699865e-02 2.0860436852e+00 -3.6131336496e+00 2.0860436852e+00 3.6131336496e+00 
18000 2.8780047806e+00 1.7493057746e-02 2.0856195306e+00 -3.6123989923e+00 2.0856195306e+00 3.6123989923e+00 
18100 2.8780006995e+00 1.7291805924e-02 2.0852001715e+00 -3.6116726410e+00 2.0852001715e+00 3.6116726410e+00 
18200 2.8779967069e+00 1.7092902620e-02 2.0847855534e+00 -3.6109545015e+00 2.0847855534e+00 3.6109545015e+00 
18300 2.8779928011e+00 1.6896307051e-02 2.0843756230e+00 -3.6102444811e+00 2.0843756230e+00 3.6102444811e+00 
18400 2.8779889807e+00 1.6701979444e-02 2.0839703275e+00 -3.6095424887e+00 2.0839703275e+00 3.6095424887e+00 
18500 2.8779852438e+00 1.6509881040e-02 2.0835696154e+00 -3.6088484350e+00 2.0835696154e+00 3.6088484350e+00 
18600 2.8779815891e+00 1.6319974098e-02 2.0831734357e+00 -3.6081622317e+00 2.0831734357e+00 3.6081622317e+00 
18700 2.8779780148e+00 1.6132221895e-02 2.0827817386e+00 -3.6074837923e+00 2.0827817386e+00 3.6074837923e+00 
18800 2.8779745195e+00 1.5946588724e-02 2.0823944747e+00 -3.6068130316e+00 2.0823944747e+00 3.6068130316e+00 
18900 2.8779711017e+00 1.5763039890e-02 2.0820115958e+00 -3.6061498658e+00 2.0820115958e+00 3.6061498658e+00 
19000 2.8779677597e+00 1.5581541698e-02 2.0816330541e+00 -3.6054942124e+00 2.0816330541e+00 3.6054942124e+00 
19100 2.8779644922e+00 1.5402061446e-02 2.0812588029e+00 -3.6048459903e+00 2.0812588029e+00 3.6048459903e+00 
19200 2.8779612976e+00 1.5224567412e-02 2.0808887959e+00 -3.6042051194e+00 2.0808887959e+00 3.6042051194e+00 
19300 2.8779581746e+00 1.5049028838e-02 2.0805229878e+00 -3.6035715212e+00 2.0805229878e+00 3.6035715212e+00 
19400 2.8779551217e+00 1.4875415918e-02 2.0801613337e+00 -3.6029451179e+00 2.0801613337e+00 3.6029451179e+00 
19500 2.8779521375e+00 1.4703699774e-02 2.0798037896e+00 -3.6023258333e+00 2.0798037896e+00 3.6023258333e+00 
19600 2.8779492207e+00 1.4533852444e-02 2.0794503119e+00 -3.6017135920e+00 2.0794503119e+00 3.6017135920e+00 
19700 2.8779463699e+00 1.4365846855e-02 2.0791008579e+00 -3.6011083199e+00 2.0791008579e+00 3.6011083199e+00 
19800 2.8779435839e+00 1.4199656806e-02 2.0787553853e+00 -3.6005099438e+00 2.0787553853e+00 3.6005099438e+00 
19900 2.8779408614e+00 1.4035256944e-02 2.0784138523e+00 -3.5999183914e+00 2.0784138523e+00 3.5999183914e+00 
20000 2.8779382010e+00 1.3872622740e-02 2.0780762180e+00 -3.5993335916e+00 2.0780762180e+00 3.5993335916e+00 
20100 2.8779356016e+00 1.3711730468e-02 2.0777424417e+00 -3.5987554741e+00 2.0777424417e+00 3.5987554741e+00 
20200 2.8779330619e+00 1.3552557175e-02 2.0774124834e+00 -3.5981839696e+00 2.0774124834e+00 3.5981839696e+00 
20300 2.8779305808e+00 1.3395080662e-02 2.0770863036e+00 -3.5976190095e+00 2.0770863036e+00 3.5976190095e+00 
20400 2.8779281571e+00 1.3239279455e-02 2.0767638631e+00 -3.5970605262e+00 2.0767638631e+00 3.5970605262e+00 
20500 2.8779257896e+00 1.3085132780e-02 2.0764451234e+00 -3.5965084529e+00 2.0764451234e+00 3.5965084529e+00 
20600 2.8779234773e+00 1.2932620538e-02 2.0761300464e+00 -3.5959627235e+00 2.0761300464e+00 3.5959627235e+00 
20700 2.8779212190e+00 1.2781723279e-02 2.0758185944e+00 -3.5954232728e+00 2.0758185944e+00 3.5954232728e+00 
20800 2.8779190137e+00 1.2632422177e-02 2.0755107302e+00 -3.5948900363e+00 2.0755107302e+00 3.5948900363e+00 
20900 2.8779168602e+00 1.2484699003e-02 2.0752064168e+00 -3.5943629501e+00 2.0752064168e+00 3.5943629501e+00 
21000 2.8779147576e+00 1.2338536099e-02 2.0749056178e+00 -3.5938419510e+00 2.0749056178e+00 3.5938419510e+00 
21100 2.8779127049e+00 1.2193916355e-02 2.0746082973e+00 -3.5933269767e+00 2.0746082973e+00 3.5933269767e+00 
21200 2.8779107009e+00 1.2050823185e-02 2.0743144195e+00 -3.5928179654e+00 2.0743144195e+00 3.5928179654e+00 
21300 2.8779087448e+00 1.1909240497e-02 2.0740239490e+00 -3.5923148558e+00 2.0740239490e+00 3.5923148558e+00 
21400 2.8779068355e+00 1.1769152677e-02 2.0737368509e+00 -3.5918175873e+00 2.0737368509e+00 3.5918175873e+00 
21500 2.8779049722e+00 1.1630544557e-02 2.0734530906e+00 -3.5913261000e+00 2.0734530906e+00 3.5913261000e+00 
21600 2.8779031538e+00 1.1493401398e-02 2.0731726337e+00 -3.5908403345e+00 2.0731726337e+00 3.5908403345e+00 
21700 2.8779013794e+00 1.1357708866e-02 2.0728954464e+00 -3.5903602319e+00 2.0728954464e+00 3.5903602319e+00 
21800 2.8778996482e+00 1.1223453009e-02 2.0726214948e+00 -3.5898857339e+00 2.0726214948e+00 3.5898857339e+00 
21900 2.8778979593e+00 1.1090620236e-02 2.0723507457e+00 -3.5894167827e+00 2.0723507457e+00 3.5894167827e+00 
22000 2.8778963117e+00 1.0959197295e-02 2.0720831660e+00 -3.5889533210e+00 2.0720831660e+00 3.5889533210e+00 
22100 2.8778947046e+00 1.0829171256e-02 2.0718187228e+00 -3.5884952920e+00 2.0718187228e+00 3.5884952920e+00 
22200 2.8778931371e+00 1.0700529490e-02 2.0715573837e+00 -3.5880426394e+00 2.0715573837e+00 3.5880426394e+00 
22300 2.8778916085e+00 1.0573259650e-02 2.0712991165e+00 -3.5875953075e+00 2.0712991165e+00 3.5875953075e+00 
22400 2.8778901178e+00 1.0447349652e-02 2.0710438892e+00 -3.5871532408e+00 2.0710438892e+00 3.5871532408e+00 
22500 2.8778886643e+00 1.0322787659e-02 2.0707916701e+00 -3.5867163845e+00 2.0707916701e+00 3.5867163845e+00 
22600 2.8778872472e+00 1.0199562065e-02 2.0705424277e+00 -3.5862846840e+00 2.0705424277e+00 3.5862846840e+00 
22700 2.8778858657e+00 1.0077661476e-02 2.0702961309e+00 -3.5858580854e+00 2.0702961309e+00 3.5858580854e+00 
22800 2.8778845190e+00 9.9570747002e-03 2.0700527487e+00 -3.5854365351e+00 2.0700527487e+00 3.5854365351e+00 
22900 2.8778832064e+00 9.8377907261e-03 2.0698122505e+00 -3.5850199799e+00 2.0698122505e+00 3.5850199799e+00 
23000 2.8778819271e+00 9.7197987146e-03 2.0695746057e+00 -3.5846083670e+00 2.0695746057e+00 3.5846083670e+00 
23100 2.8778806804e+00 9.6030879831e-03 2.0693397841e+00 -3.5842016442e+00 2.0693397841e+00 3.5842016442e+00 
23200 2.8778794655e+00 9.4876479935e-03 2.0691077558e+00 -3.5837997593e+00 2.0691077558e+00 3.5837997593e+00 
23300 2.8778782817e+00 9.3734683405e-03 2.0688784909e+00 -3.5834026610e+00 2.0688784909e+00 3.5834026610e+00 
23400 2.8778771285e+00 9.2605387401e-03 2.0686519601e+00 -3.5830102980e+00 2.0686519601e+00 3.5830102980e+00 
23500 2.8778760050e+00 9.1488490191e-03 2.0684281338e+00 -3.5826226196e+00 2.0684281338e+00 3.5826226196e+00 
23600 2.8778749105e+00 9.0383891053e-03 2.0682069831e+00 -3.5822395754e+00 2.0682069831e+00 3.5822395754e+00 
23700 2.8778738445e+00 8.9291490181e-03 2.0679884791e+00 -3.5818611153e+00 2.0679884791e+00 3.5818611153e+00 
23800 2.8778728063e+00 8.8211188597e-03 2.0677725932e+00 -3.5814871899e+00 2.0677725932e+00 3.5814871899e+00 
23900 2.8778717952e+00 8.7142888072e-03 2.0675592968e+00 -3.5811177498e+00 2.0675592968e+00 3.5811177498e+00 
24000 2.8778708106e+00 8.6086491048e-03 2.0673485619e+00 -3.5807527461e+00 2.0673485619e+00 3.5807527461e+00 
24100 2.8778698519e+00 8.5041900568e-03 2.0671403603e+00 -3.5803921304e+00 2.0671403603e+00 3.5803921304e+00 
24200 2.8778689184e+00 8.4009020212e-03 2.0669346643e+00 -3.5800358545e+00 2.0669346643e+00 3.5800358545e+00 
24300 2.8778680097e+00 8.2987754037e-03 2.0667314464e+00 -3.5796838707e+00 2.0667314464e+00 3.5796838707e+00 
24400 2.8778671251e+00 8.1978006524e-03 2.0665306791e+00 -3.5793361316e+00 2.0665306791e+00 3.5793361316e+00 
24500 2.8778662640e+00 8.0979682523e-03 2.0663323353e+00 -3.5789925901e+00 2.0663323353e+00 3.5789925901e+00 
24600 2.8778654258e+00 7.9992687213e-03 2.0661363881e+00 -3.5786531996e+00 2.0661363881e+00 3.5786531996e+00 
24700 2.8778646101e+00 7.9016926060e-03 2.0659428108e+00 -3.5783179138e+00 2.0659428108e+00 3.5783179138e+00 
24800 2.8778638163e+00 7.8052304777e-03 2.0657515768e+00 -3.5779866868e+00 2.0657515768e+00 3.5779866868e+00 
24900 2.8778630438e+00 7.7098729295e-03 2.0655626598e+00 -3.5776594730e+00 2.0655626598e+00 3.5776594730e+00 
25000 2.8778622922e+00 7.6156105732e-03 2.0653760337e+00 -3.5773362271e+00 2.0653760337e+00 3.5773362271e+00 
25100 2.8778615609e+00 7.5224340367e-03 2.0651916727e+00 -3.5770169044e+00 2.0651916727e+00 3.5770169044e+00 
25200 2.8778608494e+00 7.4303339624e-03 2.0650095510e+00 -3.5767014604e+00 2.0650095510e+00 3.5767014604e+00 
25300 2.8778601573e+00 7.3393010044e-03 2.0648296432e+00 -3.5763898510e+00 2.0648296432e+00 3.5763898510e+00 
25400 2.8778594840e+00 7.2493258278e-03 2.0646519241e+00 -3.5760820324e+00 2.0646519241e+00 3.5760820324e+00 
25500 2.8778588291e+00 7.1603991071e-03 2.0644763685e+00 -3.5757779612e+00 2.0644763685e+00 3.5757779612e+00 
25600 2.8778581922e+00 7.0725115253e-03 2.0643029517e+00 -3.5754775945e+00 2.0643029517e+00 3.5754775945e+00 
25700 2.8778575728e+00 6.9856537730e-03 2.0641316489e+00 -3.5751808895e+00 2.0641316489e+00 3.5751808895e+00 
25800 2.8778569704e+00 6.8998165485e-03 2.0639624359e+00 -3.5748878040e+00 2.0639624359e+00 3.5748878040e+00 
25900 2.8778563847e+00 6.8149905569e-03 2.0637952884e+00 -3.5745982960e+00 2.0637952884e+00 3.5745982960e+00 
26000 2.8778558152e+00 6.7311665106e-03 2.0636301824e+00 -3.5743123240e+00 2.0636301824e+00 3.5743123240e+00 
26100 2.8778552615e+00 6.6483351292e-03 2.0634670942e+00 -3.5740298468e+00 2.0634670942e+00 3.5740298468e+00 
26200 2.8778547232e+00 6.5664871400e-03 2.0633060000e+00 -3.5737508236e+00 2.0633060000e+00 3.5737508236e+00 
26300 2.8778541999e+00 6.4856132785e-03 2.0631468767e+00 -3.5734752139e+00 2.0631468767e+00 3.5734752139e+00 
26400 2.8778536913e+00 6.4057042892e-03 2.0629897010e+00 -3.5732029776e+00 2.0629897010e+00 3.5732029776e+00 
26500 2.8778531969e+00 6.3267509262e-03 2.0628344500e+00 -3.5729340750e+00 2.0628344500e+00 3.5729340750e+00 
26600 2.8778527164e+00 6.2487439547e-03 2.0626811010e+00 -3.5726684667e+00 2.0626811010e+00 3.5726684667e+00 
26700 2.8778522494e+00 6.1716741512e-03 2.0625296314e+00 -3.5724061138e+00 2.0625296314e+00 3.5724061138e+00 
26800 2.8778517957e+00 6.0955323058e-03 2.0623800191e+00 -3.5721469775e+00 2.0623800191e+00 3.5721469775e+00 
26900 2.8778513548e+00 6.0203092226e-03 2.0622322417e+00 -3.5718910197e+00 2.0622322417e+00 3.5718910197e+00 
27000 2.8778509264e+00 5.9459957216e-03 2.0620862776e+00 -3.5716382024e+00 2.0620862776e+00 3.5716382024e+00 
27100 2.8778505102e+00 5.8725826400e-03 2.0619421050e+00 -3.5713884882e+00 2.0619421050e+00 3.5713884882e+00 
27200 2.8778501059e+00 5.8000608337e-03 2.0617997025e+00 -3.5711418398e+00 2.0617997025e+00 3.5711418398e+00 
27300 2.8778497131e+00 5.7284211790e-03 2.0616590488e+00 -3.5708982205e+00 2.0616590488e+00 3.5708982205e+00 
27400 2.8778493317e+00 5.6576545741e-03 2.0615201229e+00 -3.5706575937e+00 2.0615201229e+00 3.5706575937e+00 
27500 2.8778489612e+00 5.5877519409e-03 2.0613829040e+00 -3.5704199236e+00 2.0613829040e+00 3.5704199236e+00 
27600 2.8778486014e+00 5.5187042267e-03 2.0612473714e+00 -3.5701851743e+00 2.0612473714e+00 3.5701851743e+00 
27700 2.8778482520e+00 5.4505024059e-03 2.0611135048e+00 -3.5699533105e+00 2.0611135048e+00 3.5699533105e+00 
27800 2.8778479128e+00 5.3831374817e-03 2.0609812839e+00 -3.5697242972e+00 2.0609812839e+00 3.5697242972e+00 
27900 2.8778475834e+00 5.3166004880e-03 2.0608506888e+00 -3.5694980999e+00 2.0608506888e+00 3.5694980999e+00 
28000 2.8778472636e+00 5.2508824911e-03 2.0607216998e+00 -3.5692746842e+00 2.0607216998e+00 3.5692746842e+00 
28100 2.8778469532e+00 5.1859745915e-03 2.0605942971e+00 -3.5690540164e+00 2.0605942971e+00 3.5690540164e+00 
28200 2.8778466519e+00 5.1218679256e-03 2.0604684615e+00 -3.5688360627e+00 2.0604684615e+00 3.5688360627e+00 
28300 2.8778463595e+00 5.0585536676e-03 2.0603441738e+00 -3.5686207902e+00 2.0603441738e+00 3.5686207902e+00 
28400 2.8778460757e+00 4.9960230309e-03 2.0602214151e+00 -3.5684081659e+00 2.0602214151e+00 3.5684081659e+00 
28500 2.8778458004e+00 4.9342672703e-03 2.0601001667e+00 -3.5681981574e+00 2.0601001667e+00 3.5681981574e+00 
28600 2.8778455332e+00 4.8732776836e-03 2.0599804099e+00 -3.5679907325e+00 2.0599804099e+00 3.5679907325e+00 
28700 2.8778452739e+00 4.8130456127e-03 2.0598621265e+00 -3.5677858596e+00 2.0598621265e+00 3.5677858596e+00 
28800 2.8778450224e+00 4.7535624459e-03 2.0597452982e+00 -3.5675835072e+00 2.0597452982e+00 3.5675835072e+00 
28900 2.8778447785e+00 4.6948196195e-03 2.0596299073e+00 -3.5673836443e+00 2.0596299073e+00 3.5673836443e+00 
29000 2.8778445419e+00 4.6368086188e-03 2.0595159360e+00 -3.5671862401e+00 2.0595159360e+00 3.5671862401e+00 
29100 2.8778443125e+00 4.5795209800e-03 2.0594033666e+00 -3.5669912643e+00 2.0594033666e+00 3.5669912643e+00 
29200 2.8778440900e+00 4.5229482919e-03 2.0592921820e+00 -3.5667986869e+00 2.0592921820e+00 3.5667986869e+00 
29300 2.8778438742e+00 4.4670821969e-03 2.0591823650e+00 -3.5666084782e+00 2.0591823650e+00 3.5666084782e+00 
29400 2.8778436651e+00 4.4119143925e-03 2.0590738985e+00 -3.5664206088e+00 2.0590738985e+00 3.5664206088e+00 
29500 2.8778434623e+00 4.3574366331e-03 2.0589667660e+00 -3.5662350498e+00 2.0589667660e+00 3.5662350498e+00 
29600 2.8778432658e+00 4.3036407304e-03 2.0588609508e+00 -3.5660517725e+00 2.0588609508e+00 3.5660517725e+00 
29700 2.8778430754e+00 4.2505185557e-03 2.0587564366e+00 -3.5658707486e+00 2.0587564366e+00 3.5658707486e+00 
29800 2.8778428908e+00 4.1980620401e-03 2.0586532072e+00 -3.5656919501e+00 2.0586532072e+00 3.5656919501e+00 
29900 2.8778427120e+00 4.1462631766e-03 2.0585512467e+00 -3.5655153493e+00 2.0585512467e+00 3.5655153493e+00 
30000 2.8778425388e+00 4.0951140203e-03 2.0584505392e+00 -3.5653409188e+00 2.0584505392e+00 3.5653409188e+00 
30100 2.8778423710e+00 4.0446066900e-03 2.0583510692e+00 -3.5651686317e+00 2.0583510692e+00 3.5651686317e+00 
30200 2.8778422085e+00 3.9947333690e-03 2.0582528213e+00 -3.5649984613e+00 2.0582528213e+00 3.5649984613e+00 
30300 2.8778420511e+00 3.9454863061e-03 2.0581557802e+00 -3.5648303812e+00 2.0581557802e+00 3.5648303812e+00 
30400 2.8778418987e+00 3.8968578164e-03 2.0580599309e+00 -3.5646643654e+00 2.0580599309e+00 3.5646643654e+00 
30500 2.8778417512e+00 3.8488402821e-03 2.0579652586e+00 -3.5645003881e+00 2.0579652586e+00 3.5645003881e+00 
30600 2.8778416084e+00 3.8014261532e-03 2.0578717485e+00 -3.5643384238e+00 2.0578717485e+00 3.5643384238e+00 
30700 2.8778414701e+00 3.7546079487e-03 2.0577793861e+00 -3.5641784475e+00 2.0577793861e+00 3.5641784475e+00 
30800 2.8778413364e+00 3.7083782565e-03 2.0576881572e+00 -3.5640204344e+00 2.0576881572e+00 3.5640204344e+00 
30900 2.8778412070e+00 3.6627297345e-03 2.0575980475e+00 -3.5638643599e+00 2.0575980475e+00 3.5638643599e+00 
31000 2.8778410818e+00 3.6176551110e-03 2.0575090432e+00 -3.5637101998e+00 2.0575090432e+00 3.5637101998e+00 
31100 2.8778409607e+00 3.5731471854e-03 2.0574211303e+00 -3.5635579303e+00 2.0574211303e+00 3.5635579303e+00 
31200 2.8778408437e+00 3.5291988284e-03 2.0573342954e+00 -3.5634075277e+00 2.0573342954e+00 3.5634075277e+00 
31300 2.8778407305e+00 3.4858029824e-03 2.0572485248e+00 -3.5632589688e+00 2.0572485248e+00 3.5632589688e+00 
31400 2.8778406210e+00 3.4429526620e-03 2.0571638054e+00 -3.5631122304e+00 2.0571638054e+00 3.5631122304e+00 
31500 2.8778405153e+00 3.4006409542e-03 2.0570801239e+00 -3.5629672898e+00 2.0570801239e+00 3.5629672898e+00 
31600 2.8778404130e+00 3.3588610189e-03 2.0569974675e+00 -3.5628241247e+00 2.0569974675e+00 3.5628241247e+00 
31700 2.8778403143e+00 3.3176060885e-03 2.0569158233e+00 -3.5626827128e+00 2.0569158233e+00 3.5626827128e+00 
31800 2.8778402189e+00 3.2768694689e-03 2.0568351786e+00 -3.5625430322e+00 2.0568351786e+00 3.5625430322e+00 
31900 2.8778401268e+00 3.2366445389e-03 2.0567555211e+00 -3.5624050613e+00 2.0567555211e+00 3.5624050613e+00 
32000 2.8778400379e+00 3.1969247507e-03 2.0566768383e+00 -3.5622687787e+00 2.0566768383e+00 3.5622687787e+00 
32100 2.8778399520e+00 3.1577036297e-03 2.0565991182e+00 -3.5621341635e+00 2.0565991182e+00 3.5621341635e+00 
32200 2.8778398692e+00 3.1189747746e-03 2.0565223486e+00 -3.5620011947e+00 2.0565223486e+00 3.5620011947e+00 
32300 2.8778397892e+00 3.0807318574e-03 2.0564465178e+00 -3.5618698519e+00 2.0564465178e+00 3.5618698519e+00 
32400 2.8778397121e+00 3.0429686232e-03 2.0563716140e+00 -3.5617401147e+00 2.0563716140e+00 3.5617401147e+00 
32500 2.8778396377e+00 3.0056788900e-03 2.0562976257e+00 -3.5616119631e+00 2.0562976257e+00 3.5616119631e+00 
32600 2.8778395660e+00 2.9688565489e-03 2.0562245414e+00 -3.5614853774e+00 2.0562245414e+00 3.5614853774e+00 
32700 2.8778394969e+00 2.9324955635e-03 2.0561523499e+00 -3.5613603381e+00 2.0561523499e+00 3.5613603381e+00 
32800 2.8778394303e+00 2.8965899699e-03 2.0560810400e+00 -3.5612368258e+00 2.0560810400e+00 3.5612368258e+00 
32900 2.8778393662e+00 2.8611338764e-03 2.0560106008e+00 -3.5611148215e+00 2.0560106008e+00 3.5611148215e+00 
33000 2.8778393044e+00 2.8261214631e-03 2.0559410215e+00 -3.5609943066e+00 2.0559410215e+00 3.5609943066e+00 
33100 2.8778392449e+00 2.7915469817e-03 2.0558722912e+00 -3.5608752623e+00 2.0558722912e+00 3.5608752623e+00 
33200 2.8778391877e+00 2.7574047553e-03 2.0558043996e+00 -3.5607576705e+00 2.0558043996e+00 3.5607576705e+00 
33300 2.8778391326e+00 2.7236891775e-03 2.0557373361e+00 -3.5606415131e+00 2.0557373361e+00 3.5606415131e+00 
33400 2.8778390796e+00 2.6903947125e-03 2.0556710904e+00 -3.5605267722e+00 2.0556710904e+00 3.5605267722e+00 
33500 2.8778390287e+00 2.6575158947e-03 2.0556056524e+00 -3.5604134302e+00 2.0556056524e+00 3.5604134302e+00 
33600 2.8778389798e+00 2.6250473277e-03 2.0555410120e+00 -3.5603014698e+00 2.0555410120e+00 3.5603014698e+00 
33700 2.8778389328e+00 2.5929836844e-03 2.0554771594e+00 -3.5601908738e+00 2.0554771594e+00 3.5601908738e+00 
33800 2.8778388876e+00 2.5613197063e-03 2.0554140847e+00 -3.5600816253e+00 2.0554140847e+00 3.5600816253e+00 
33900 2.8778388443e+00 2.5300502029e-03 2.0553517784e+00 -3.5599737076e+00 2.0553517784e+00 3.5599737076e+00 
34000 2.8778388027e+00 2.4991700512e-03 2.0552902308e+00 -3.5598671041e+00 2.0552902308e+00 3.5598671041e+00 
34100 2.8778387628e+00 2.4686741953e-03 2.0552294327e+00 -3.5597617986e+00 2.0552294327e+00 3.5597617986e+00 
34200 2.8778387246e+00 2.4385576456e-03 2.0551693746e+00 -3.5596577749e+00 2.0551693746e+00 3.5596577749e+00 
34300 2.8778386880e+00 2.4088154785e-03 2.0551100475e+00 -3.5595550173e+00 2.0551100475e+00 3.5595550173e+00 
34400 2.8778386530e+00 2.3794428355e-03 2.0550514422e+00 -3.5594535101e+00 2.0550514422e+00 3.5594535101e+00 
34500 2.8778386194e+00 2.3504349226e-03 2.0549935500e+00 -3.5593532378e+00 2.0549935500e+00 3.5593532378e+00 
34600 2.8778385873e+00 2.3217870102e-03 2.0549363618e+00 -3.5592541850e+00 2.0549363618e+00 3.5592541850e+00 
34700 2.8778385567e+00 2.2934944316e-03 2.0548798692e+00 -3.5591563369e+00 2.0548798692e+00 3.5591563369e+00 
34800 2.8778385274e+00 2.2655525831e-03 2.0548240634e+00 -3.5590596784e+00 2.0548240634e+00 3.5590596784e+00 
34900 2.8778384994e+00 2.2379569231e-03 2.0547689360e+00 -3.5589641949e+00 2.0547689360e+00 3.5589641949e+00 
35000 2.8778384727e+00 2.2107029711e-03 2.0547144786e+00 -3.5588698720e+00 2.0547144786e+00 3.5588698720e+00 
35100 2.8778384473e+00 2.1837863077e-03 2.0546606830e+00 -3.5587766952e+00 2.0546606830e+00 3.5587766952e+00 
35200 2.8778384231e+00 2.1572025732e-03 2.0546075409e+00 -3.5586846505e+00 2.0546075409e+00 3.5586846505e+00 
35300 2.8778384000e+00 2.1309474676e-03 2.0545550445e+00 -3.5585937239e+00 2.0545550445e+00 3.5585937239e+00 
35400 2.8778383781e+00 2.1050167492e-03 2.0545031856e+00 -3.5585039017e+00 2.0545031856e+00 3.5585039017e+00 
35500 2.8778383573e+00 2.0794062346e-03 2.0544519564e+00 -3.5584151703e+00 2.0544519564e+00 3.5584151703e+00 
35600 2.8778383376e+00 2.0541117975e-03 2.0544013493e+00 -3.5583275162e+00 2.0544013493e+00 3.5583275162e+00 
35700 2.8778383189e+00 2.0291293683e-03 2.0543513566e+00 -3.5582409262e+00 2.0543513566e+00 3.5582409262e+00 
35800 2.8778383012e+00 2.0044549331e-03 2.0543019706e+00 -3.5581553872e+00 2.0543019706e+00 3.5581553872e+00 
35900 2.8778382844e+00 1.9800845333e-03 2.0542531841e+00 -3.5580708864e+00 2.0542531841e+00 3.5580708864e+00 
36000 2.8778382686e+00 1.9560142647e-03 2.0542049895e+00 -3.5579874110e+00 2.0542049895e+00 3.5579874110e+00 
36100 2.8778382537e+00 1.9322402769e-03 2.0541573797e+00 -3.5579049484e+00 2.0541573797e+00 3.5579049484e+00 
36200 2.8778382397e+00 1.9087587725e-03 2.0541103474e+00 -3.5578234861e+00 2.0541103474e+00 3.5578234861e+00 
36300 2.8778382265e+00 1.8855660066e-03 2.0540638857e+00 -3.5577430120e+00 2.0540638857e+00 3.5577430120e+00 
36400 2.8778382141e+00 1.8626582858e-03 2.0540179874e+00 -3.5576635139e+00 2.0540179874e+00 3.5576635139e+00 
36500 2.8778382025e+00 1.8400319675e-03 2.0539726458e+00 -3.5575849798e+00 2.0539726458e+00 3.5575849798e+00 
36600 2.8778381917e+00 1.8176834596e-03 2.0539278539e+00 -3.5575073980e+00 2.0539278539e+00 3.5575073980e+00 
36700 2.8778381817e+00 1.7956092195e-03 2.0538836051e+00 -3.5574307569e+00 2.0538836051e+00 3.5574307569e+00 
36800 2.8778381723e+00 1.7738057534e-03 2.0538398927e+00 -3.5573550448e+00 2.0538398927e+00 3.5573550448e+00 
36900 2.8778381637e+00 1.7522696156e-03 2.0537967102e+00 -3.5572802505e+00 2.0537967102e+00 3.5572802505e+00 
37000 2.8778381557e+00 1.7309974079e-03 2.0537540511e+00 -3.5572063627e+00 2.0537540511e+00 3.5572063627e+00 
37100 2.8778381483e+00 1.7099857790e-03 2.0537119089e+00 -3.5571333704e+00 2.0537119089e+00 3.5571333704e+00 
37200 2.8778381416e+00 1.6892314237e-03 2.0536702775e+00 -3.5570612626e+00 2.0536702775e+00 3.5570612626e+00 
37300 2.8778381355e+00 1.6687310822e-03 2.0536291505e+00 -3.5569900286e+00 2.0536291505e+00 3.5569900286e+00 
37400 2.8778381299e+00 1.6484815394e-03 2.0535885218e+00 -3.5569196576e+00 2.0535885218e+00 3.5569196576e+00 
37500 2.8778381249e+00 1.6284796246e-03 2.0535483853e+00 -3.5568501392e+00 2.0535483853e+00 3.5568501392e+00 
37600 2.8778381205e+00 1.6087222103e-03 2.0535087351e+00 -3.5567814629e+00 2.0535087351e+00 3.5567814629e+00 
37700 2.8778381166e+00 1.5892062120e-03 2.0534695651e+00 -3.5567136186e+00 2.0534695651e+00 3.5567136186e+00 
37800 2.8778381131e+00 1.5699285872e-03 2.0534308696e+00 -3.5566465960e+00 2.0534308696e+00 3.5566465960e+00 
37900 2.8778381102e+00 1.5508863353e-03 2.0533926427e+00 -3.5565803851e+00 2.0533926427e+00 3.5565803851e+00 
38000 2.8778381077e+00 1.5320764963e-03 2.0533548789e+00 -3.5565149762e+00 2.0533548789e+00 3.5565149762e+00 
38100 2.8778381057e+00 1.5134961507e-03 2.0533175723e+00 -3.5564503593e+00 2.0533175723e+00 3.5564503593e+00 
38200 2.8778381041e+00 1.4951424185e-03 2.0532807175e+00 -3.5563865250e+00 2.0532807175e+00 3.5563865250e+00 
38300 2.8778381030e+00 1.4770124592e-03 2.0532443090e+00 -3.5563234636e+00 2.0532443090e+00 3.5563234636e+00 
38400 2.8778381022e+00 1.4591034704e-03 2.0532083413e+00 -3.5562611657e+00 2.0532083413e+00 3.5562611657e+00 
38500 2.8778381018e+00 1.4414126877e-03 2.0531728092e+00 -3.5561996222e+00 2.0531728092e+00 3.5561996222e+00 
38600 2.8778381018e+00 1.4239373843e-03 2.0531377072e+00 -3.5561388238e+00 2.0531377072e+00 3.5561388238e+00 
38700 2.8778381021e+00 1.4066748699e-03 2.0531030302e+00 -3.5560787614e+00 2.0531030302e+00 3.5560787614e+00 
38800 2.8778381028e+00 1.3896224904e-03 2.0530687730e+00 -3.5560194262e+00 2.0530687730e+00 3.5560194262e+00 
38900 2.8778381039e+00 1.3727776275e-03 2.0530349305e+00 -3.5559608094e+00 2.0530349305e+00 3.5559608094e+00 
39000 2.8778381052e+00 1.3561376979e-03 2.0530014977e+00 -3.5559029021e+00 2.0530014977e+00 3.5559029021e+00 
39100 2.8778381068e+00 1.3397001529e-03 2.0529684696e+00 -3.5558456957e+00 2.0529684696e+00 3.5558456957e+00 
39200 2.8778381088e+00 1.3234624779e-03 2.0529358414e+00 -3.5557891819e+00 2.0529358414e+00 3.5557891819e+00 
39300 2.8778381110e+00 1.3074221915e-03 2.0529036080e+00 -3.5557333521e+00 2.0529036080e+00 3.5557333521e+00 
39400 2.8778381135e+00 1.2915768456e-03 2.0528717649e+00 -3.5556781982e+00 2.0528717649e+00 3.5556781982e+00 
39500 2.8778381162e+00 1.2759240244e-03 2.0528403071e+00 -3.5556237118e+00 2.0528403071e+00 3.5556237118e+00 
39600 2.8778381192e+00 1.2604613443e-03 2.0528092302e+00 -3.5555698849e+00 2.0528092302e+00 3.5555698849e+00 
39700 2.8778381224e+00 1.2451864530e-03 2.0527785294e+00 -3.5555167095e+00 2.0527785294e+00 3.5555167095e+00 
39800 2.8778381259e+00 1.2300970292e-03 2.0527482001e+00 -3.5554641778e+00 2.0527482001e+00 3.5554641778e+00 
39900 2.8778381296e+00 1.2151907823e-03 2.0527182380e+00 -3.5554122819e+00 2.0527182380e+00 3.5554122819e+00 
40000 2.8778381334e+00 1.2004654516e-03 2.0526886385e+00 -3.5553610141e+00 2.0526886385e+00 3.5553610141e+00 
40100 2.8778381375e+00 1.1859188060e-03 2.0526593973e+00 -3.5553103668e+00 2.0526593973e+00 3.5553103668e+00 
40200 2.8778381418e+00 1.1715486437e-03 2.0526305100e+00 -3.5552603325e+00 2.0526305100e+00 3.5552603325e+00 
40300 2.8778381462e+00 1.1573527916e-03 2.0526019723e+00 -3.5552109038e+00 2.0526019723e+00 3.5552109038e+00 
40400 2.8778381508e+00 1.1433291047e-03 2.0525737801e+00 -3.5551620734e+00 2.0525737801e+00 3.5551620734e+00 
40500 2.8778381556e+00 1.1294754661e-03 2.0525459290e+00 -3.5551138339e+00 2.0525459290e+00 3.5551138339e+00 
40600 2.8778381606e+00 1.1157897861e-03 2.0525184151e+00 -3.5550661784e+00 2.0525184151e+00 3.5550661784e+00 
40700 2.8778381656e+00 1.1022700023e-03 2.0524912341e+00 -3.5550190996e+00 2.0524912341e+00 3.5550190996e+00 
40800 2.8778381709e+00 1.0889140787e-03 2.0524643822e+00 -3.5549725907e+00 2.0524643822e+00 3.5549725907e+00 
40900 2.8778381762e+00 1.0757200055e-03 2.0524378553e+00 -3.5549266447e+00 2.0524378553e+00 3.5549266447e+00 
41000 2.8778381817e+00 1.0626857989e-03 2.0524116494e+00 -3.5548812548e+00 2.0524116494e+00 3.5548812548e+00 
41100 2.8778381873e+00 1.0498095003e-03 2.0523857608e+00 -3.5548364144e+00 2.0523857608e+00 3.5548364144e+00 
41200 2.8778381930e+00 1.0370891766e-03 2.0523601855e+00 -3.5547921166e+00 2.0523601855e+00 3.5547921166e+00 
41300 2.8778381988e+00 1.0245229189e-03 2.0523349197e+00 -3.5547483551e+00 2.0523349197e+00 3.5547483551e+00 
41400 2.8778382047e+00 1.0121088430e-03 2.0523099599e+00 -3.5547051234e+00 2.0523099599e+00 3.5547051234e+00 
41500 2.8778382108e+00 9.9984508844e-04 2.0522853021e+00 -3.5546624149e+00 2.0522853021e+00 3.5546624149e+00 
41600 2.8778382169e+00 9.8772981860e-04 2.0522609428e+00 -3.5546202234e+00 2.0522609428e+00 3.5546202234e+00 
41700 2.8778382231e+00 9.7576122004e-04 2.0522368785e+00 -3.5545785427e+00 2.0522368785e+00 3.5545785427e+00 
41800 2.8778382293e+00 9.6393750230e-04 2.0522131054e+00 -3.5545373665e+00 2.0522131054e+00 3.5545373665e+00 
41900 2.8778382357e+00 9.5225689753e-04 2.0521896201e+00 -3.5544966888e+00 2.0521896201e+00 3.5544966888e+00 
42000 2.8778382421e+00 9.4071766022e-04 2.0521664192e+00 -3.5544565036e+00 2.0521664192e+00 3.5544565036e+00 
42100 2.8778382485e+00 9.2931806681e-04 2.0521434991e+00 -3.5544168049e+00 2.0521434991e+00 3.5544168049e+00 
42200 2.8778382551e+00 9.1805641541e-04 2.0521208565e+00 -3.5543775868e+00 2.0521208565e+00 3.5543775868e+00 
42300 2.8778382616e+00 9.0693102554e-04 2.0520984881e+00 -3.5543388435e+00 2.0520984881e+00 3.5543388435e+00 
42400 2.8778382683e+00 8.9594023773e-04 2.0520763905e+00 -3.5543005693e+00 2.0520763905e+00 3.5543005693e+00 
42500 2.8778382749e+00 8.8508241332e-04 2.0520545604e+00 -3.5542627586e+00 2.0520545604e+00 3.5542627586e+00 
42600 2.8778382817e+00 8.7435593410e-04 2.0520329947e+00 -3.5542254056e+00 2.0520329947e+00 3.5542254056e+00 
42700 2.8778382884e+00 8.6375920208e-04 2.0520116901e+00 -3.5541885050e+00 2.0520116901e+00 3.5541885050e+00 
42800 2.8778382952e+00 8.5329063918e-04 2.0519906435e+00 -3.5541520512e+00 2.0519906435e+00 3.5541520512e+00 
42900 2.8778383020e+00 8.4294868695e-04 2.0519698518e+00 -3.5541160389e+00 2.0519698518e+00 3.5541160389e+00 
43000 2.8778383089e+00 8.3273180633e-04 2.0519493118e+00 -3.5540804626e+00 2.0519493118e+00 3.5540804626e+00 
43100 2.8778383157e+00 8.2263847735e-04 2.0519290206e+00 -3.5540453172e+00 2.0519290206e+00 3.5540453172e+00 
43200 2.8778383226e+00 8.1266719890e-04 2.0519089751e+00 -3.5540105975e+00 2.0519089751e+00 3.5540105975e+00 
43300 2.8778383295e+00 8.0281648846e-04 2.0518891725e+00 -3.5539762982e+00 2.0518891725e+00 3.5539762982e+00 
43400 2.8778383364e+00 7.9308488186e-04 2.0518696096e+00 -3.5539424144e+00 2.0518696096e+00 3.5539424144e+00 
43500 2.8778383434e+00 7.8347093301e-04 2.0518502838e+00 -3.5539089410e+00 2.0518502838e+00 3.5539089410e+00 
43600 2.8778383503e+00 7.7397321370e-04 2.0518311920e+00 -3.5538758731e+00 2.0518311920e+00 3.5538758731e+00 
43700 2.8778383572e+00 7.6459031330e-04 2.0518123315e+00 -3.5538432057e+00 2.0518123315e+00 3.5538432057e+00 
43800 2.8778383642e+00 7.5532083859e-04 2.0517936994e+00 -3.5538109340e+00 2.0517936994e+00 3.5538109340e+00 
43900 2.8778383711e+00 7.4616341350e-04 2.0517752931e+00 -3.5537790533e+00 2.0517752931e+00 3.5537790533e+00 
44000 2.8778383780e+00 7.3711667889e-04 2.0517571098e+00 -3.5537475589e+00 2.0517571098e+00 3.5537475589e+00 
44100 2.8778383850e+00 7.2817929231e-04 2.0517391467e+00 -3.5537164460e+00 2.0517391467e+00 3.5537164460e+00 
44200 2.8778383919e+00 7.1934992780e-04 2.0517214013e+00 -3.5536857101e+00 2.0517214013e+00 3.5536857101e+00 
44300 2.8778383988e+00 7.1062727570e-04 2.0517038710e+00 -3.5536553466e+00 2.0517038710e+00 3.5536553466e+00 
44400 2.8778384057e+00 7.0201004237e-04 2.0516865530e+00 -3.5536253510e+00 2.0516865530e+00 3.5536253510e+00 
44500 2.8778384126e+00 6.9349695006e-04 2.0516694449e+00 -3.5535957189e+00 2.0516694449e+00 3.5535957189e+00 
44600 2.8778384195e+00 6.8508673664e-04 2.0516525441e+00 -3.5535664459e+00 2.0516525441e+00 3.5535664459e+00 
44700 2.8778384264e+00 6.7677815547e-04 2.0516358482e+00 -3.5535375277e+00 2.0516358482e+00 3.5535375277e+00 
44800 2.8778384332e+00 6.6856997510e-04 2.0516193546e+00 -3.5535089599e+00 2.0516193546e+00 3.5535089599e+00 
44900 2.8778384400e+00 6.6046097920e-04 2.0516030609e+00 -3.5534807384e+00 2.0516030609e+00 3.5534807384e+00 
45000 2.8778384468e+00 6.5244996627e-04 2.0515869647e+00 -3.5534528590e+00 2.0515869647e+00 3.5534528590e+00 
45100 2.8778384536e+00 6.4453574948e-04 2.0515710636e+00 -3.5534253175e+00 2.0515710636e+00 3.5534253175e+00 
45200 2.8778384604e+00 6.3671715652e-04 2.0515553553e+00 -3.5533981099e+00 2.0515553553e+00 3.5533981099e+00 
45300 2.8778384671e+00 6.2899302936e-04 2.0515398374e+00 -3.5533712321e+00 2.0515398374e+00 3.5533712321e+00 
45400 2.8778384738e+00 6.2136222411e-04 2.0515245076e+00 -3.5533446802e+00 2.0515245076e+00 3.5533446802e+00 
45500 2.8778384804e+00 6.1382361084e-04 2.0515093637e+00 -3.5533184502e+00 2.0515093637e+00 3.5533184502e+00 
45600 2.8778384871e+00 6.0637607337e-04 2.0514944035e+00 -3.5532925382e+00 2.0514944035e+00 3.5532925382e+00 
45700 2.8778384937e+00 5.9901850915e-04 2.0514796246e+00 -3.5532669405e+00 2.0514796246e+00 3.5532669405e+00 
45800 2.8778385003e+00 5.9174982906e-04 2.0514650249e+00 -3.5532416531e+00 2.0514650249e+00 3.5532416531e+00 
45900 2.8778385068e+00 5.8456895722e-04 2.0514506023e+00 -3.5532166725e+00 2.0514506023e+00 3.5532166725e+00 
46000 2.8778385133e+00 5.7747483088e-04 2.0514363547e+00 -3.5531919948e+00 2.0514363547e+00 3.5531919948e+00 
46100 2.8778385198e+00 5.7046640023e-04 2.0514222798e+00 -3.5531676164e+00 2.0514222798e+00 3.5531676164e+00 
46200 2.8778385262e+00 5.6354262822e-04 2.0514083756e+00 -3.5531435337e+00 2.0514083756e+00 3.5531435337e+00 
46300 2.8778385326e+00 5.5670249043e-04 2.0513946401e+00 -3.5531197431e+00 2.0513946401e+00 3.5531197431e+00 
46400 2.8778385390e+00 5.4994497492e-04 2.0513810713e+00 -3.5530962411e+00 2.0513810713e+00 3.5530962411e+00 
46500 2.8778385453e+00 5.4326908205e-04 2.0513676670e+00 -3.5530730243e+00 2.0513676670e+00 3.5530730243e+00 
46600 2.8778385516e+00 5.3667382433e-04 2.0513544254e+00 -3.5530500891e+00 2.0513544254e+00 3.5530500891e+00 
46700 2.8778385578e+00 5.3015822630e-04 2.0513413445e+00 -3.5530274323e+00 2.0513413445e+00 3.5530274323e+00 
46800 2.8778385640e+00 5.2372132435e-04 2.0513284222e+00 -3.5530050503e+00 2.0513284222e+00 3.5530050503e+00 
46900 2.8778385702e+00 5.1736216660e-04 2.0513156568e+00 -3.5529829400e+00 2.0513156568e+00 3.5529829400e+00 
47000 2.8778385763e+00 5.1107981275e-04 2.0513030464e+00 -3.5529610980e+00 2.0513030464e+00 3.5529610980e+00 
47100 2.8778385824e+00 5.0487333391e-04 2.0512905889e+00 -3.5529395211e+00 2.0512905889e+00 3.5529395211e+00 
47200 2.8778385884e+00 4.9874181250e-04 2.0512782827e+00 -3.5529182061e+00 2.0512782827e+00 3.5529182061e+00 
47300 2.8778385944e+00 4.9268434211e-04 2.0512661259e+00 -3.5528971498e+00 2.0512661259e+00 3.5528971498e+00 
47400 2.8778386004e+00 4.8670002731e-04 2.0512541166e+00 -3.5528763492e+00 2.0512541166e+00 3.5528763492e+00 
47500 2.8778386063e+00 4.8078798360e-04 2.0512422531e+00 -3.5528558011e+00 2.0512422531e+00 3.5528558011e+00 
47600 2.8778386122e+00 4.7494733720e-04 2.0512305337e+00 -3.5528355024e+00 2.0512305337e+00 3.5528355024e+00 
47700 2.8778386180e+00 4.6917722496e-04 2.0512189566e+00 -3.5528154503e+00 2.0512189566e+00 3.5528154503e+00 
47800 2.8778386237e+00 4.6347679424e-04 2.0512075200e+00 -3.5527956416e+00 2.0512075200e+00 3.5527956416e+00 
47900 2.8778386295e+00 4.5784520274e-04 2.0511962224e+00 -3.5527760735e+00 2.0511962224e+00 3.5527760735e+00 
48000 2.8778386351e+00 4.5228161841e-04 2.0511850620e+00 -3.5527567431e+00 2.0511850620e+00 3.5527567431e+00 
48100 2.8778386408e+00 4.4678521932e-04 2.0511740371e+00 -3.5527376474e+00 2.0511740371e+00 3.5527376474e+00 
48200 2.8778386464e+00 4.4135519352e-04 2.0511631461e+00 -3.5527187837e+00 2.0511631461e+00 3.5527187837e+00 
48300 2.8778386519e+00 4.3599073893e-04 2.0511523875e+00 -3.5527001492e+00 2.0511523875e+00 3.5527001492e+00 
48400 2.8778386574e+00 4.3069106322e-04 2.0511417596e+00 -3.5526817411e+00 2.0511417596e+00 3.5526817411e+00 
48500 2.8778386629e+00 4.2545538370e-04 2.0511312608e+00 -3.5526635566e+00 2.0511312608e+00 3.5526635566e+00 
48600 2.8778386683e+00 4.2028292718e-04 2.0511208895e+00 -3.5526455931e+00 2.0511208895e+00 3.5526455931e+00 
48700 2.8778386736e+00 4.1517292989e-04 2.0511106443e+00 -3.5526278479e+00 2.0511106443e+00 3.5526278479e+00 
48800 2.8778386789e+00 4.1012463731e-04 2.0511005237e+00 -3.5526103184e+00 2.0511005237e+00 3.5526103184e+00 
48900 2.8778386842e+00 4.0513730412e-04 2.0510905260e+00 -3.5525930019e+00 2.0510905260e+00 3.5525930019e+00 
49000 2.8778386894e+00 4.0021019404e-04 2.0510806499e+00 -3.5525758960e+00 2.0510806499e+00 3.5525758960e+00 
49100 2.8778386946e+00 3.9534257976e-04 2.0510708938e+00 -3.5525589979e+00 2.0510708938e+00 3.5525589979e+00 
49200 2.8778386997e+00 3.9053374279e-04 2.0510612563e+00 -3.5525423054e+00 2.0510612563e+00 3.5525423054e+00 
49300 2.8778387048e+00 3.8578297338e-04 2.0510517360e+00 -3.5525258158e+00 2.0510517360e+00 3.5525258158e+00 
49400 2.8778387098e+00 3.8108957041e-04 2.0510423315e+00 -3.5525095267e+00 2.0510423315e+00 3.5525095267e+00 
49500 2.8778387148e+00 3.7645284128e-04 2.0510330414e+00 -3.5524934357e+00 2.0510330414e+00 3.5524934357e+00 
49600 2.8778387197e+00 3.7187210179e-04 2.0510238643e+00 -3.5524775404e+00 2.0510238643e+00 3.5524775404e+00 
49700 2.8778387246e+00 3.6734667609e-04 2.0510147987e+00 -3.5524618385e+00 2.0510147987e+00 3.5524618385e+00 
49800 2.8778387295e+00 3.6287589651e-04 2.0510058435e+00 -3.5524463276e+00 2.0510058435e+00 3.5524463276e+00 
49900 2.8778387343e+00 3.5845910352e-04 2.0509969972e+00 -3.5524310053e+00 2.0509969972e+00 3.5524310053e+00 
50000 2.8778387390e+00 3.5409564558e-04 2.0509882586e+00 -3.5524158696e+00 2.0509882586e+00 3.5524158696e+00 
50100 2.8778387437e+00 3.4978487908e-04 2.0509796263e+00 -3.5524009180e+00 2.0509796263e+00 3.5524009180e+00 
50200 2.8778387484e+00 3.4552616823e-04 2.0509710990e+00 -3.5523861483e+00 2.0509710990e+00 3.5523861483e+00 
50300 2.8778387530e+00 3.4131888496e-04 2.0509626755e+00 -3.5523715584e+00 2.0509626755e+00 3.5523715584e+00 
50400 2.8778387575e+00 3.3716240884e-04 2.0509543546e+00 -3.5523571461e+00 2.0509543546e+00 3.5523571461e+00 
50500 2.8778387621e+00 3.3305612697e-04 2.0509461349e+00 -3.5523429093e+00 2.0509461349e+00 3.5523429093e+00 
50600 2.8778387665e+00 3.2899943389e-04 2.0509380154e+00 -3.5523288458e+00 2.0509380154e+00 3.5523288458e+00 
50700 2.8778387710e+00 3.2499173150e-04 2.0509299947e+00 -3.5523149535e+00 2.0509299947e+00 3.5523149535e+00 
50800 2.8778387754e+00 3.2103242897e-04 2.0509220716e+00 -3.5523012305e+00 2.0509220716e+00 3.5523012305e+00 
50900 2.8778387797e+00 3.1712094263e-04 2.0509142451e+00 -3.5522876745e+00 2.0509142451e+00 3.5522876745e+00 
51000 2.8778387840e+00 3.1325669591e-04 2.0509065139e+00 -3.5522742837e+00 2.0509065139e+00 3.5522742837e+00 
51100 2.8778387883e+00 3.0943911925e-04 2.0508988769e+00 -3.5522610559e+00 2.0508988769e+00 3.5522610559e+00 
51200 2.8778387925e+00 3.0566764997e-04 2.0508913329e+00 -3.5522479894e+00 2.0508913329e+00 3.5522479894e+00 
51300 2.8778387966e+00 3.0194173225e-04 2.0508838808e+00 -3.5522350820e+00 2.0508838808e+00 3.5522350820e+00 
51400 2.8778388008e+00 2.9826081702e-04 2.0508765196e+00 -3.5522223320e+00 2.0508765196e+00 3.5522223320e+00 
51500 2.8778388048e+00 2.9462436185e-04 2.0508692480e+00 -3.5522097373e+00 2.0508692480e+00 3.5522097373e+00 
51600 2.8778388089e+00 2.9103183091e-04 2.0508620651e+00 -3.5521972961e+00 2.0508620651e+00 3.5521972961e+00 
51700 2.8778388129e+00 2.8748269487e-04 2.0508549698e+00 -3.5521850066e+00 2.0508549698e+00 3.5521850066e+00 
51800 2.8778388168e+00 2.8397643082e-04 2.0508479609e+00 -3.5521728669e+00 2.0508479609e+00 3.5521728669e+00 
51900 2.8778388207e+00 2.8051252218e-04 2.0508410375e+00 -3.5521608753e+00 2.0508410375e+00 3.5521608753e+00 
52000 2.8778388246e+00 2.7709045865e-04 2.0508341986e+00 -3.5521490299e+00 2.0508341986e+00 3.5521490299e+00 
52100 2.8778388284e+00 2.7370973612e-04 2.0508274430e+00 -3.5521373289e+00 2.0508274430e+00 3.5521373289e+00 
52200 2.8778388322e+00 2.7036985659e-04 2.0508207699e+00 -3.5521257707e+00 2.0508207699e+00 3.5521257707e+00 
52300 2.8778388360e+00 2.6707032809e-04 2.0508141781e+00 -3.5521143534e+00 2.0508141781e+00 3.5521143534e+00 
52400 2.8778388397e+00 2.6381066462e-04 2.0508076668e+00 -3.5521030755e+00 2.0508076668e+00 3.5521030755e+00 
52500 2.8778388433e+00 2.6059038606e-04 2.0508012350e+00 -3.5520919352e+00 2.0508012350e+00 3.5520919352e+00 
52600 2.8778388469e+00 2.5740901813e-04 2.0507948816e+00 -3.5520809308e+00 2.0507948816e+00 3.5520809308e+00 
52700 2.8778388505e+00 2.5426609226e-04 2.0507886057e+00 -3.5520700607e+00 2.0507886057e+00 3.5520700607e+00 
52800 2.8778388541e+00 2.5116114560e-04 2.0507824065e+00 -3.5520593234e+00 2.0507824065e+00 3.5520593234e+00 
52900 2.8778388576e+00 2.4809372086e-04 2.0507762830e+00 -3.5520487171e+00 2.0507762830e+00 3.5520487171e+00 
53000 2.8778388610e+00 2.4506336633e-04 2.0507702342e+00 -3.5520382403e+00 2.0507702342e+00 3.5520382403e+00 
53100 2.8778388645e+00 2.4206963574e-04 2.0507642593e+00 -3.5520278915e+00 2.0507642593e+00 3.5520278915e+00 
53200 2.8778388679e+00 2.3911208822e-04 2.0507583574e+00 -3.5520176690e+00 2.0507583574e+00 3.5520176690e+00 
53300 2.8778388712e+00 2.3619028826e-04 2.0507525275e+00 -3.5520075714e+00 2.0507525275e+00 3.5520075714e+00 
53400 2.8778388745e+00 2.3330380560e-04 2.0507467689e+00 -3.5519975972e+00 2.0507467689e+00 3.5519975972e+00 
53500 2.8778388778e+00 2.3045221519e-04 2.0507410806e+00 -3.5519877448e+00 2.0507410806e+00 3.5519877448e+00 
53600 2.8778388810e+00 2.2763509711e-04 2.0507354619e+00 -3.5519780129e+00 2.0507354619e+00 3.5519780129e+00 
53700 2.8778388842e+00 2.2485203653e-04 2.0507299118e+00 -3.5519683998e+00 2.0507299118e+00 3.5519683998e+00 
53800 2.8778388874e+00 2.2210262365e-04 2.0507244296e+00 -3.5519589043e+00 2.0507244296e+00 3.5519589043e+00 
53900 2.8778388905e+00 2.1938645359e-04 2.0507190143e+00 -3.5519495249e+00 2.0507190143e+00 3.5519495249e+00 
54000 2.8778388936e+00 2.1670312639e-04 2.0507136653e+00 -3.5519402601e+00 2.0507136653e+00 3.5519402601e+00 
54100 2.8778388967e+00 2.1405224690e-04 2.0507083817e+00 -3.5519311087e+00 2.0507083817e+00 3.5519311087e+00 
54200 2.8778388997e+00 2.1143342477e-04 2.0507031628e+00 -3.5519220691e+00 2.0507031628e+00 3.5519220691e+00 
54300 2.8778389027e+00 2.0884627435e-04 2.0506980076e+00 -3.5519131402e+00 2.0506980076e+00 3.5519131402e+00 
54400 2.8778389056e+00 2.0629041464e-04 2.0506929155e+00 -3.5519043204e+00 2.0506929155e+00 3.5519043204e+00 
54500 2.8778389085e+00 2.0376546925e-04 2.0506878858e+00 -3.5518956086e+00 2.0506878858e+00 3.5518956086e+00 
54600 2.8778389114e+00 2.0127106633e-04 2.0506829175e+00 -3.5518870034e+00 2.0506829175e+00 3.5518870034e+00 
54700 2.8778389143e+00 1.9880683852e-04 2.0506780101e+00 -3.5518785035e+00 2.0506780101e+00 3.5518785035e+00 
54800 2.8778389171e+00 1.9637242289e-04 2.0506731628e+00 -3.5518701077e+00 2.0506731628e+00 3.5518701077e+00 
54900 2.8778389199e+00 1.9396746088e-04 2.0506683748e+00 -3.5518618146e+00 2.0506683748e+00 3.5518618146e+00 
55000 2.8778389226e+00 1.9159159828e-04 2.0506636454e+00 -3.5518536231e+00 2.0506636454e+00 3.5518536231e+00 
55100 2.8778389253e+00 1.8924448512e-04 2.0506589740e+00 -3.5518455319e+00 2.0506589740e+00 3.5518455319e+00 
55200 2.8778389280e+00 1.8692577567e-04 2.0506543597e+00 -3.5518375398e+00 2.0506543597e+00 3.5518375398e+00 
55300 2.8778389307e+00 1.8463512836e-04 2.0506498020e+00 -3.5518296456e+00 2.0506498020e+00 3.5518296456e+00 
55400 2.8778389333e+00 1.8237220573e-04 2.0506453002e+00 -3.5518218482e+00 2.0506453002e+00 3.5518218482e+00 
55500 2.8778389359e+00 1.8013667440e-04 2.0506408535e+00 -3.5518141463e+00 2.0506408535e+00 3.5518141463e+00 
55600 2.8778389384e+00 1.7792820499e-04 2.0506364613e+00 -3.5518065387e+00 2.0506364613e+00 3.5518065387e+00 
55700 2.8778389410e+00 1.7574647210e-04 2.0506321229e+00 -3.5517990245e+00 2.0506321229e+00 3.5517990245e+00 
55800 2.8778389435e+00 1.7359115425e-04 2.0506278377e+00 -3.5517916023e+00 2.0506278377e+00 3.5517916023e+00 
55900 2.8778389459e+00 1.7146193382e-04 2.0506236051e+00 -3.5517842712e+00 2.0506236051e+00 3.5517842712e+00 
56000 2.8778389484e+00 1.6935849701e-04 2.0506194244e+00 -3.5517770300e+00 2.0506194244e+00 3.5517770300e+00 
56100 2.8778389508e+00 1.6728053381e-04 2.0506152949e+00 -3.5517698776e+00 2.0506152949e+00 3.5517698776e+00 
56200 2.8778389532e+00 1.6522773794e-04 2.0506112161e+00 -3.5517628129e+00 2.0506112161e+00 3.5517628129e+00 
56300 2.8778389555e+00 1.6319980679e-04 2.0506071874e+00 -3.5517558349e+00 2.0506071874e+00 3.5517558349e+00 
56400 2.8778389578e+00 1.6119644139e-04 2.0506032081e+00 -3.5517489425e+00 2.0506032081e+00 3.5517489425e+00 
56500 2.8778389601e+00 1.5921734638e-04 2.0505992776e+00 -3.5517421348e+00 2.0505992776e+00 3.5517421348e+00 
56600 2.8778389624e+00 1.5726222996e-04 2.0505953954e+00 -3.5517354106e+00 2.0505953954e+00 3.5517354106e+00 
56700 2.8778389646e+00 1.5533080380e-04 2.0505915608e+00 -3.5517287690e+00 2.0505915608e+00 3.5517287690e+00 
56800 2.8778389668e+00 1.5342278308e-04 2.0505877734e+00 -3.5517222089e+00 2.0505877734e+00 3.5517222089e+00 
56900 2.8778389690e+00 1.5153788635e-04 2.0505840324e+00 -3.5517157294e+00 2.0505840324e+00 3.5517157294e+00 
57000 2.8778389712e+00 1.4967583561e-04 2.0505803374e+00 -3.5517093295e+00 2.0505803374e+00 3.5517093295e+00 
57100 2.8778389733e+00 1.4783635614e-04 2.0505766879e+00 -3.5517030082e+00 2.0505766879e+00 3.5517030082e+00 
57200 2.8778389754e+00 1.4601917654e-04 2.0505730831e+00 -3.5516967646e+00 2.0505730831e+00 3.5516967646e+00 
57300 2.8778389775e+00 1.4422402869e-04 2.0505695227e+00 -3.5516905977e+00 2.0505695227e+00 3.5516905977e+00 
57400 2.8778389796e+00 1.4245064765e-04 2.0505660060e+00 -3.5516845066e+00 2.0505660060e+00 3.5516845066e+00 
57500 2.8778389816e+00 1.4069877170e-04 2.0505625325e+00 -3.5516784904e+00 2.0505625325e+00 3.5516784904e+00 
57600 2.8778389836e+00 1.3896814224e-04 2.0505591018e+00 -3.5516725482e+00 2.0505591018e+00 3.5516725482e+00 
57700 2.8778389856e+00 1.3725850377e-04 2.0505557133e+00 -3.5516666791e+00 2.0505557133e+00 3.5516666791e+00 
57800 2.8778389875e+00 1.3556960387e-04 2.0505523664e+00 -3.5516608822e+00 2.0505523664e+00 3.5516608822e+00 
57900 2.8778389895e+00 1.3390119315e-04 2.0505490607e+00 -3.5516551566e+00 2.0505490607e+00 3.5516551566e+00 
58000 2.8778389914e+00 1.3225302520e-04 2.0505457957e+00 -3.5516495014e+00 2.0505457957e+00 3.5516495014e+00 
58100 2.8778389933e+00 1.3062485657e-04 2.0505425709e+00 -3.5516439158e+00 2.0505425709e+00 3.5516439158e+00 
58200 2.8778389951e+00 1.2901644673e-04 2.0505393857e+00 -3.5516383990e+00 2.0505393857e+00 3.5516383990e+00 
58300 2.8778389970e+00 1.2742755804e-04 2.0505362398e+00 -3.5516329502e+00 2.0505362398e+00 3.5516329502e+00 
58400 2.8778389988e+00 1.2585795571e-04 2.0505331327e+00 -3.5516275684e+00 2.0505331327e+00 3.5516275684e+00 
58500 2.8778390006e+00 1.2430740776e-04 2.0505300638e+00 -3.5516222529e+00 2.0505300638e+00 3.5516222529e+00 
58600 2.8778390023e+00 1.2277568500e-04 2.0505270326e+00 -3.5516170028e+00 2.0505270326e+00 3.5516170028e+00 
58700 2.8778390041e+00 1.2126256096e-04 2.0505240389e+00 -3.5516118175e+00 2.0505240389e+00 3.5516118175e+00 
58800 2.8778390058e+00 1.1976781193e-04 2.0505210820e+00 -3.5516066961e+00 2.0505210820e+00 3.5516066961e+00 
58900 2.8778390075e+00 1.1829121684e-04 2.0505181616e+00 -3.5516016377e+00 2.0505181616e+00 3.5516016377e+00 
59000 2.8778390092e+00 1.1683255729e-04 2.0505152772e+00 -3.5515966418e+00 2.0505152772e+00 3.5515966418e+00 
59100 2.8778390108e+00 1.1539161750e-04 2.0505124283e+00 -3.5515917074e+00 2.0505124283e+00 3.5515917074e+00 
59200 2.8778390125e+00 1.1396818426e-04 2.0505096146e+00 -3.5515868339e+00 2.0505096146e+00 3.5515868339e+00 
59300 2.8778390141e+00 1.1256204693e-04 2.0505068356e+00 -3.5515820205e+00 2.0505068356e+00 3.5515820205e+00 
59400 2.8778390157e+00 1.1117299738e-04 2.0505040908e+00 -3.5515772665e+00 2.0505040908e+00 3.5515772665e+00 
59500 2.8778390173e+00 1.0980082999e-04 2.0505013800e+00 -3.5515725711e+00 2.0505013800e+00 3.5515725711e+00 
59600 2.8778390188e+00 1.0844534159e-04 2.0504987026e+00 -3.5515679337e+00 2.0504987026e+00 3.5515679337e+00 
59700 2.8778390204e+00 1.0710633145e-04 2.0504960582e+00 -3.5515633535e+00 2.0504960582e+00 3.5515633535e+00 
59800 2.8778390219e+00 1.0578360124e-04 2.0504934465e+00 -3.5515588299e+00 2.0504934465e+00 3.5515588299e+00 
59900 2.8778390234e+00 1.0447695500e-04 2.0504908670e+00 -3.5515543621e+00 2.0504908670e+00 3.5515543621e+00 
60000 2.8778390249e+00 1.0318619913e-04 2.0504883194e+00 -3.5515499495e+00 2.0504883194e+00 3.5515499495e+00 
60100 2.8778390264e+00 1.0191114234e-04 2.0504858033e+00 -3.5515455914e+00 2.0504858033e+00 3.5515455914e+00 
60200 2.8778390278e+00 1.0065159564e-04 2.0504833182e+00 -3.5515412872e+00 2.0504833182e+00 3.5515412872e+00 
60300 2.8778390292e+00 9.9407372286e-05 2.0504808639e+00 -3.5515370362e+00 2.0504808639e+00 3.5515370362e+00 
60400 2.8778390306e+00 9.8178287781e-05 2.0504784399e+00 -3.5515328377e+00 2.0504784399e+00 3.5515328377e+00 
60500 2.8778390320e+00 9.6964159836e-05 2.0504760458e+00 -3.5515286911e+00 2.0504760458e+00 3.5515286911e+00 
60600 2.8778390334e+00 9.5764808348e-05 2.0504736814e+00 -3.5515245958e+00 2.0504736814e+00 3.5515245958e+00 
60700 2.8778390348e+00 9.4580055362e-05 2.0504713462e+00 -3.5515205511e+00 2.0504713462e+00 3.5515205511e+00 
60800 2.8778390361e+00 9.3409725057e-05 2.0504690399e+00 -3.5515165565e+00 2.0504690399e+00 3.5515165565e+00 
60900 2.8778390374e+00 9.2253643721e-05 2.0504667622e+00 -3.5515126113e+00 2.0504667622e+00 3.5515126113e+00 
61000 2.8778390387e+00 9.1111639717e-05 2.0504645126e+00 -3.5515087149e+00 2.0504645126e+00 3.5515087149e+00 
61100 2.8778390400e+00 8.9983543461e-05 2.0504622909e+00 -3.5515048668e+00 2.0504622909e+00 3.5515048668e+00 
61200 2.8778390413e+00 8.8869187402e-05 2.0504600966e+00 -3.5515010663e+00 2.0504600966e+00 3.5515010663e+00 
61300 2.8778390425e+00 8.7768405999e-05 2.0504579296e+00 -3.5514973128e+00 2.0504579296e+00 3.5514973128e+00 
61400 2.8778390438e+00 8.6681035680e-05 2.0504557894e+00 -3.5514936058e+00 2.0504557894e+00 3.5514936058e+00 
61500 2.8778390450e+00 8.5606914846e-05 2.0504536757e+00 -3.5514899448e+00 2.0504536757e+00 3.5514899448e+00 
61600 2.8778390462e+00 8.4545883822e-05 2.0504515881e+00 -3.5514863291e+00 2.0504515881e+00 3.5514863291e+00 
61700 2.8778390474e+00 8.3497784847e-05 2.0504495265e+00 -3.5514827583e+00 2.0504495265e+00 3.5514827583e+00 
61800 2.8778390486e+00 8.2462462050e-05 2.0504474904e+00 -3.5514792317e+00 2.0504474904e+00 3.5514792317e+00 
61900 2.8778390497e+00 8.1439761426e-05 2.0504454796e+00 -3.5514757488e+00 2.0504454796e+00 3.5514757488e+00 
62000 2.8778390509e+00 8.0429530806e-05 2.0504434937e+00 -3.5514723091e+00 2.0504434937e+00 3.5514723091e+00 
62100 2.8778390520e+00 7.9431619858e-05 2.0504415324e+00 -3.5514689121e+00 2.0504415324e+00 3.5514689121e+00 
62200 2.8778390531e+00 7.8445880033e-05 2.0504395955e+00 -3.5514655572e+00 2.0504395955e+00 3.5514655572e+00 
62300 2.8778390542e+00 7.7472164571e-05 2.0504376826e+00 -3.5514622440e+00 2.0504376826e+00 3.5514622440e+00 
62400 2.8778390553e+00 7.6510328463e-05 2.0504357934e+00 -3.5514589718e+00 2.0504357934e+00 3.5514589718e+00 
62500 2.8778390564e+00 7.5560228440e-05 2.0504339277e+00 -3.5514557403e+00 2.0504339277e+00 3.5514557403e+00 
62600 2.8778390574e+00 7.4621722944e-05 2.0504320852e+00 -3.5514525490e+00 2.0504320852e+00 3.5514525490e+00 
62700 2.8778390585e+00 7.3694672117e-05 2.0504302655e+00 -3.5514493972e+00 2.0504302655e+00 3.5514493972e+00 
62800 2.8778390595e+00 7.2778937769e-05 2.0504284684e+00 -3.5514462846e+00 2.0504284684e+00 3.5514462846e+00 
62900 2.8778390605e+00 7.1874383370e-05 2.0504266937e+00 -3.5514432107e+00 2.0504266937e+00 3.5514432107e+00 
63000 2.8778390616e+00 7.0980874019e-05 2.0504249410e+00 -3.5514401750e+00 2.0504249410e+00 3.5514401750e+00 
63100 2.8778390625e+00 7.0098276437e-05 2.0504232102e+00 -3.5514371770e+00 2.0504232102e+00 3.5514371770e+00 
63200 2.8778390636e+00 6.9907515302e-05 2.0504232102e+00 -3.5514371770e+00 2.0504232102e+00 3.5514371770e+00 
63300 2.8778390647e+00 6.9723226299e-05 2.0504232102e+00 -3.5514371770e+00 2.0504232102e+00 3.5514371770e+00 
63400 2.8778390658e+00 6.9545517966e-05 2.0504232102e+00 -3.5514371770e+00 2.0504232102e+00 3.5514371770e+00 
63500 2.8778390668e+00 6.9374464827e-05 2.0504232102e+00 -3.5514371770e+00 2.0504232102e+00 3.5514371770e+00 
63600 2.8778390679e+00 6.9210109744e-05 2.0504232102e+00 -3.5514371770e+00 2.0504232102e+00 3.5514371770e+00 
63700 2.8778390689e+00 6.9052466217e-05 2.0504232102e+00 -3.5514371770e+00 2.0504232102e+00 3.5514371770e+00 
63800 2.8778390699e+00 6.8901520635e-05 2.0504232102e+00 -3.5514371770e+00 2.0504232102e+00 3.5514371770e+00 
63900 2.8778390709e+00 6.8757234457e-05 2.0504232102e+00 -3.5514371770e+00 2.0504232102e+00 3.5514371770e+00 
64000 2.8778390719e+00 6.8619546327e-05 2.0504232102e+00 -3.5514371770e+00 2.0504232102e+00 3.5514371770e+00 
64100 2.8778390728e+00 6.8488374122e-05 2.0504232102e+00 -3.5514371770e+00 2.0504232102e+00 3.5514371770e+00 
64200 2.8778390738e+00 6.8363616920e-05 2.0504232102e+00 -3.5514371770e+00 2.0504232102e+00 3.5514371770e+00 
64300 2.8778390747e+00 6.8245156896e-05 2.0504232102e+00 -3.5514371770e+00 2.0504232102e+00 3.5514371770e+00 
64400 2.8778390756e+00 6.8132861131e-05 2.0504232102e+00 -3.5514371770e+00 2.0504232102e+00 3.5514371770e+00 
64500 2.8778390765e+00 6.8026583349e-05 2.0504232102e+00 -3.5514371770e+00 2.0504232102e+00 3.5514371770e+00 
64600 2.8778390774e+00 6.7926165563e-05 2.0504232102e+00 -3.5514371770e+00 2.0504232102e+00 3.5514371770e+00 
64700 2.8778390783e+00 6.7831439639e-05 2.0504232102e+00 -3.5514371770e+00 2.0504232102e+00 3.5514371770e+00 
64800 2.8778390792e+00 6.7742228784e-05 2.0504232102e+00 -3.5514371770e+00 2.0504232102e+00 3.5514371770e+00 
64900 2.8778390800e+00 6.7658348946e-05 2.0504232102e+00 -3.5514371770e+00 2.0504232102e+00 3.5514371770e+00 
65000 2.8778390809e+00 6.7579610128e-05 2.0504232102e+00 -3.5514371770e+00 2.0504232102e+00 3.5514371770e+00 
65100 2.8778390817e+00 6.7505817625e-05 2.0504232102e+00 -3.5514371770e+00 2.0504232102e+00 3.5514371770e+00 
65200 2.8778390825e+00 6.7436773184e-05 2.0504232102e+00 -3.5514371770e+00 2.0504232102e+00 3.5514371770e+00 
65300 2.8778390834e+00 6.7372276078e-05 2.0504232102e+00 -3.5514371770e+00 2.0504232102e+00 3.5514371770e+00 
65400 2.8778390842e+00 6.7312124109e-05 2.0504232102e+00 -3.5514371770e+00 2.0504232102e+00 3.5514371770e+00 
65500 2.8778390849e+00 6.7256114532e-05 2.0504232102e+00 -3.5514371770e+00 2.0504232102e+00 3.5514371770e+00 
65600 2.8778390857e+00 6.7204044909e-05 2.0504232102e+00 -3.5514371770e+00 2.0504232102e+00 3.5514371770e+00 
65700 2.8778390865e+00 6.7155713889e-05 2.0504232102e+00 -3.5514371770e+00 2.0504232102e+00 3.5514371770e+00 
65800 2.8778390872e+00 6.7110921930e-05 2.0504232102e+00 -3.5514371770e+00 2.0504232102e+00 3.5514371770e+00 
65900 2.8778390880e+00 6.7069471939e-05 2.0504232102e+00 -3.5514371770e+00 2.0504232102e+00 3.5514371770e+00 
66000 2.8778390887e+00 6.7031169862e-05 2.0504232102e+00 -3.5514371770e+00 2.0504232102e+00 3.5514371770e+00 
66100 2.8778390894e+00 6.6995825212e-05 2.0504232102e+00 -3.5514371770e+00 2.0504232102e+00 3.5514371770e+00 
66200 2.8778390902e+00 6.6963251530e-05 2.0504232102e+00 -3.5514371770e+00 2.0504232102e+00 3.5514371770e+00 
66300 2.8778390909e+00 6.6933266809e-05 2.0504232102e+00 -3.5514371770e+00 2.0504232102e+00 3.5514371770e+00 
66400 2.8778390916e+00 6.6905693844e-05 2.0504232102e+00 -3.5514371770e+00 2.0504232102e+00 3.5514371770e+00 
66500 2.8778390922e+00 6.6880360553e-05 2.0504232102e+00 -3.5514371770e+00 2.0504232102e+00 3.5514371770e+00 
66600 2.8778390929e+00 6.6857100239e-05 2.0504232102e+00 -3.5514371770e+00 2.0504232102e+00 3.5514371770e+00 
66700 2.8778390936e+00 6.6835751810e-05 2.0504232102e+00 -3.5514371770e+00 2.0504232102e+00 3.5514371770e+00 
66800 2.8778390942e+00 6.6816159965e-05 2.0504232102e+00 -3.5514371770e+00 2.0504232102e+00 3.5514371770e+00 
66900 2.8778390949e+00 6.6798175329e-05 2.0504232102e+00 -3.5514371770e+00 2.0504232102e+00 3.5514371770e+00 
67000 2.8778390955e+00 6.6781654568e-05 2.0504232102e+00 -3.5514371770e+00 2.0504232102e+00 3.5514371770e+00 
67100 2.8778390962e+00 6.6766460457e-05 2.0504232102e+00 -3.5514371770e+00 2.0504232102e+00 3.5514371770e+00 
67200 2.8778390968e+00 6.6752461921e-05 2.0504232102e+00 -3.5514371770e+00 2.0504232102e+00 3.5514371770e+00 
67300 2.8778390974e+00 6.6739534054e-05 2.0504232102e+00 -3.5514371770e+00 2.0504232102e+00 3.5514371770e+00 
67400 2.8778390980e+00 6.6727558103e-05 2.0504232102e+00 -3.5514371770e+00 2.0504232102e+00 3.5514371770e+00 
67500 2.8778390986e+00 6.6716421435e-05 2.0504232102e+00 -3.5514371770e+00 2.0504232102e+00 3.5514371770e+00 
67600 2.8778390992e+00 6.6706017474e-05 2.0504232102e+00 -3.5514371770e+00 2.0504232102e+00 3.5514371770e+00 
67700 2.8778390998e+00 6.6696245630e-05 2.0504232102e+00 -3.5514371770e+00 2.0504232102e+00 3.5514371770e+00 
67800 2.8778391003e+00 6.6687011200e-05 2.0504232102e+00 -3.5514371770e+00 2.0504232102e+00 3.5514371770e+00 
67900 2.8778391009e+00 6.6678225258e-05 2.0504232102e+00 -3.5514371770e+00 2.0504232102e+00 3.5514371770e+00 
68000 2.8778391014e+00 6.6669804531e-05 2.0504232102e+00 -3.5514371770e+00 2.0504232102e+00 3.5514371770e+00 
68100 2.8778391020e+00 6.6661671256e-05 2.0504232102e+00 -3.5514371770e+00 2.0504232102e+00 3.5514371770e+00 
68200 2.8778391025e+00 6.6653753046e-05 2.0504232102e+00 -3.5514371770e+00 2.0504232102e+00 3.5514371770e+00 
68300 2.8778391031e+00 6.6645982714e-05 2.0504232102e+00 -3.5514371770e+00 2.0504232102e+00 3.5514371770e+00 
68400 2.8778391036e+00 6.6638298125e-05 2.0504232102e+00 -3.5514371770e+00 2.0504232102e+00 3.5514371770e+00 
68500 2.8778391041e+00 6.6630642014e-05 2.0504232102e+00 -3.5514371770e+00 2.0504232102e+00 3.5514371770e+00 
68600 2.8778391046e+00 6.6622961815e-05 2.0504232102e+00 -3.5514371770e+00 2.0504232102e+00 3.5514371770e+00 
68700 2.8778391051e+00 6.6615209476e-05 2.0504232102e+00 -3.5514371770e+00 2.0504232102e+00 3.5514371770e+00 
68800 2.8778391056e+00 6.6607341282e-05 2.0504232102e+00 -3.5514371770e+00 2.0504232102e+00 3.5514371770e+00 
68900 2.8778391061e+00 6.6599317663e-05 2.0504232102e+00 -3.5514371770e+00 2.0504232102e+00 3.5514371770e+00 
69000 2.8778391066e+00 6.6591103013e-05 2.0504232102e+00 -3.5514371770e+00 2.0504232102e+00 3.5514371770e+00 
69100 2.8778391071e+00 6.6582665500e-05 2.0504232102e+00 -3.5514371770e+00 2.0504232102e+00 3.5514371770e+00 
69200 2.8778391075e+00 6.6573976884e-05 2.0504232102e+00 -3.5514371770e+00 2.0504232102e+00 3.5514371770e+00 
69300 2.8778391080e+00 6.6565012330e-05 2.0504232102e+00 -3.5514371770e+00 2.0504232102e+00 3.5514371770e+00 
69400 2.8778391084e+00 6.6555750226e-05 2.0504232102e+00 -3.5514371770e+00 2.0504232102e+00 3.5514371770e+00 
69500 2.8778391089e+00 6.6546172003e-05 2.0504232102e+00 -3.5514371770e+00 2.0504232102e+00 3.5514371770e+00 
69600 2.8778391093e+00 6.6536261963e-05 2.0504232102e+00 -3.5514371770e+00 2.0504232102e+00 3.5514371770e+00 
69700 2.8778391098e+00 6.6526007099e-05 2.0504232102e+00 -3.5514371770e+00 2.0504232102e+00 3.5514371770e+00 
69800 2.8778391102e+00 6.6515396929e-05 2.0504232102e+00 -3.5514371770e+00 2.0504232102e+00 3.5514371770e+00 
69900 2.8778391106e+00 6.6504423334e-05 2.0504232102e+00 -3.5514371770e+00 2.0504232102e+00 3.5514371770e+00 
70000 2.8778391111e+00 6.6493080397e-05 2.0504232102e+00 -3.5514371770e+00 2.0504232102e+00 3.5514371770e+00 
70100 2.8778391115e+00 6.6481364241e-05 2.0504232102e+00 -3.5514371770e+00 2.0504232102e+00 3.5514371770e+00 
70200 2.8778391119e+00 6.6469272889e-05 2.0504232102e+00 -3.5514371770e+00 2.0504232102e+00 3.5514371770e+00 
70300 2.8778391123e+00 6.6456806113e-05 2.0504232102e+00 -3.5514371770e+00 2.0504232102e+00 3.5514371770e+00 
70400 2.8778391127e+00 6.6443965300e-05 2.0504232102e+00 -3.5514371770e+00 2.0504232102e+00 3.5514371770e+00 
70500 2.8778391131e+00 6.6430753307e-05 2.0504232102e+00 -3.5514371770e+00 2.0504232102e+00 3.5514371770e+00 
70600 2.8778391135e+00 6.6417174347e-05 2.0504232102e+00 -3.5514371770e+00 2.0504232102e+00 3.5514371770e+00 
70700 2.8778391138e+00 6.6403233857e-05 2.0504232102e+00 -3.5514371770e+00 2.0504232102e+00 3.5514371770e+00 
70800 2.8778391142e+00 6.6388938382e-05 2.0504232102e+00 -3.5514371770e+00 2.0504232102e+00 3.5514371770e+00 
70900 2.8778391146e+00 6.6374295468e-05 2.0504232102e+00 -3.5514371770e+00 2.0504232102e+00 3.5514371770e+00 
71000 2.8778391150e+00 6.6359313552e-05 2.0504232102e+00 -3.5514371770e+00 2.0504232102e+00 3.5514371770e+00 
71100 2.8778391153e+00 6.6344001862e-05 2.0504232102e+00 -3.5514371770e+00 2.0504232102e+00 3.5514371770e+00 
71200 2.8778391157e+00 6.6328370323e-05 2.0504232102e+00 -3.5514371770e+00 2.0504232102e+00 3.5514371770e+00 
71300 2.8778391160e+00 6.6312429469e-05 2.0504232102e+00 -3.5514371770e+00 2.0504232102e+00 3.5514371770e+00 
71400 2.8778391164e+00 6.6296190356e-05 2.0504232102e+00 -3.5514371770e+00 2.0504232102e+00 3.5514371770e+00 
71500 2.8778391167e+00 6.6279664483e-05 2.0504232102e+00 -3.5514371770e+00 2.0504232102e+00 3.5514371770e+00 
71600 2.8778391170e+00 6.6262863721e-05 2.0504232102e+00 -3.5514371770e+00 2.0504232102e+00 3.5514371770e+00 
71700 2.8778391174e+00 6.6245800238e-05 2.0504232102e+00 -3.5514371770e+00 2.0504232102e+00 3.5514371770e+00 
71800 2.8778391177e+00 6.6228486442e-05 2.0504232102e+00 -3.5514371770e+00 2.0504232102e+00 3.5514371770e+00 
71900 2.8778391180e+00 6.6210934916e-05 2.0504232102e+00 -3.5514371770e+00 2.0504232102e+00 3.5514371770e+00 
72000 2.8778391183e+00 6.6193158359e-05 2.0504232102e+00 -3.5514371770e+00 2.0504232102e+00 3.5514371770e+00 
72100 2.8778391187e+00 6.6175169544e-05 2.0504232102e+00 -3.5514371770e+00 2.0504232102e+00 3.5514371770e+00 
72200 2.8778391190e+00 6.6156981260e-05 2.0504232102e+00 -3.5514371770e+00 2.0504232102e+00 3.5514371770e+00 
72300 2.8778391193e+00 6.6138606279e-05 2.0504232102e+00 -3.5514371770e+00 2.0504232102e+00 3.5514371770e+00 
72400 2.8778391196e+00 6.6120057308e-05 2.0504232102e+00 -3.5514371770e+00 2.0504232102e+00 3.5514371770e+00 
72500 2.8778391199e+00 6.6101346957e-05 2.0504232102e+00 -3.5514371770e+00 2.0504232102e+00 3.5514371770e+00 
72600 2.8778391202e+00 6.6082487704e-05 2.0504232102e+00 -3.5514371770e+00 2.0504232102e+00 3.5514371770e+00 
72700 2.8778391205e+00 6.6063491868e-05 2.0504232102e+00 -3.5514371770e+00 2.0504232102e+00 3.5514371770e+00 
72800 2.8778391207e+00 6.6044371578e-05 2.0504232102e+00 -3.5514371770e+00 2.0504232102e+00 3.5514371770e+00 
72900 2.8778391210e+00 6.6025138755e-05 2.0504232102e+00 -3.5514371770e+00 2.0504232102e+00 3.5514371770e+00 
73000 2.8778391213e+00 6.6005805087e-05 2.0504232102e+00 -3.5514371770e+00 2.0504232102e+00 3.5514371770e+00 
73100 2.8778391216e+00 6.5986382012e-05 2.0504232102e+00 -3.5514371770e+00 2.0504232102e+00 3.5514371770e+00 
73200 2.8778391219e+00 6.5966880701e-05 2.0504232102e+00 -3.5514371770e+00 2.0504232102e+00 3.5514371770e+00 
73300 2.8778391221e+00 6.5947312043e-05 2.0504232102e+00 -3.5514371770e+00 2.0504232102e+00 3.5514371770e+00 
73400 2.8778391224e+00 6.5927686641e-05 2.0504232102e+00 -3.5514371770e+00 2.0504232102e+00 3.5514371770e+00 
73500 2.8778391226e+00 6.5908014790e-05 2.0504232102e+00 -3.5514371770e+00 2.0504232102e+00 3.5514371770e+00 
73600 2.8778391229e+00 6.5888306479e-05 2.0504232102e+00 -3.5514371770e+00 2.0504232102e+00 3.5514371770e+00 
73700 2.8778391232e+00 6.5868571381e-05 2.0504232102e+00 -3.5514371770e+00 2.0504232102e+00 3.5514371770e+00 
73800 2.8778391234e+00 6.5848818847e-05 2.0504232102e+00 -3.5514371770e+00 2.0504232102e+00 3.5514371770e+00 
73900 2.8778391236e+00 6.5829057908e-05 2.0504232102e+00 -3.5514371770e+00 2.0504232102e+00 3.5514371770e+00 
74000 2.8778391239e+00 6.5809297265e-05 2.0504232102e+00 -3.5514371770e+00 2.0504232102e+00 3.5514371770e+00 
74100 2.8778391241e+00 6.5789545297e-05 2.0504232102e+00 -3.5514371770e+00 2.0504232102e+00 3.5514371770e+00 
74200 2.8778391244e+00 6.5769810055e-05 2.0504232102e+00 -3.5514371770e+00 2.0504232102e+00 3.5514371770e+00 
74300 2.8778391246e+00 6.5750099265e-05 2.0504232102e+00 -3.5514371770e+00 2.0504232102e+00 3.5514371770e+00 
74400 2.8778391248e+00 6.5730420334e-05 2.0504232102e+00 -3.5514371770e+00 2.0504232102e+00 3.5514371770e+00 
74500 2.8778391251e+00 6.5710780348e-05 2.0504232102e+00 -3.5514371770e+00 2.0504232102e+00 3.5514371770e+00 
74600 2.8778391253e+00 6.5691186080e-05 2.0504232102e+00 -3.5514371770e+00 2.0504232102e+00 3.5514371770e+00 
74700 2.8778391255e+00 6.5671643992e-05 2.0504232102e+00 -3.5514371770e+00 2.0504232102e+00 3.5514371770e+00 
74800 2.8778391257e+00 6.5652160240e-05 2.0504232102e+00 -3.5514371770e+00 2.0504232102e+00 3.5514371770e+00 
74900 2.8778391259e+00 6.5632740681e-05 2.0504232102e+00 -3.5514371770e+00 2.0504232102e+00 3.5514371770e+00 
75000 2.8778391261e+00 6.5613390880e-05 2.0504232102e+00 -3.5514371770e+00 2.0504232102e+00 3.5514371770e+00 
75100 2.8778391264e+00 6.5594116116e-05 2.0504232102e+00 -3.5514371770e+00 2.0504232102e+00 3.5514371770e+00 
75200 2.8778391266e+00 6.5574921383e-05 2.0504232102e+00 -3.5514371770e+00 2.0504232102e+00 3.5514371770e+00 
75300 2.8778391268e+00 6.5555811407e-05 2.0504232102e+00 -3.5514371770e+00 2.0504232102e+00 3.5514371770e+00 
75400 2.8778391270e+00 6.5536790647e-05 2.0504232102e+00 -3.5514371770e+00 2.0504232102e+00 3.5514371770e+00 
75500 2.8778391272e+00 6.5517863303e-05 2.0504232102e+00 -3.5514371770e+00 2.0504232102e+00 3.5514371770e+00 
75600 2.8778391274e+00 6.5499033325e-05 2.0504232102e+00 -3.5514371770e+00 2.0504232102e+00 3.5514371770e+00 
75700 2.8778391276e+00 6.5480304420e-05 2.0504232102e+00 -3.5514371770e+00 2.0504232102e+00 3.5514371770e+00 
75800 2.8778391277e+00 6.5461680058e-05 2.0504232102e+00 -3.5514371770e+00 2.0504232102e+00 3.5514371770e+00 
75900 2.8778391279e+00 6.5443163486e-05 2.0504232102e+00 -3.5514371770e+00 2.0504232102e+00 3.5514371770e+00 
76000 2.8778391281e+00 6.5424757726e-05 2.0504232102e+00 -3.5514371770e+00 2.0504232102e+00 3.5514371770e+00 
76100 2.8778391283e+00 6.5406465592e-05 2.0504232102e+00 -3.5514371770e+00 2.0504232102e+00 3.5514371770e+00 
76200 2.8778391285e+00 6.5388289693e-05 2.0504232102e+00 -3.5514371770e+00 2.0504232102e+00 3.5514371770e+00 
76300 2.8778391287e+00 6.5370232439e-05 2.0504232102e+00 -3.5514371770e+00 2.0504232102e+00 3.5514371770e+00 
76400 2.8778391288e+00 6.5352296053e-05 2.0504232102e+00 -3.5514371770e+00 2.0504232102e+00 3.5514371770e+00 
76500 2.8778391290e+00 6.5334482576e-05 2.0504232102e+00 -3.5514371770e+00 2.0504232102e+00 3.5514371770e+00 
76600 2.8778391292e+00 6.5316793877e-05 2.0504232102e+00 -3.5514371770e+00 2.0504232102e+00 3.5514371770e+00 
76700 2.8778391294e+00 6.5299231651e-05 2.0504232102e+00 -3.5514371770e+00 2.0504232102e+00 3.5514371770e+00 
76800 2.8778391295e+00 6.5281797440e-05 2.0504232102e+00 -3.5514371770e+00 2.0504232102e+00 3.5514371770e+00 
76900 2.8778391297e+00 6.5264492629e-05 2.0504232102e+00 -3.5514371770e+00 2.0504232102e+00 3.5514371770e+00 
77000 2.8778391298e+00 6.5247318457e-05 2.0504232102e+00 -3.5514371770e+00 2.0504232102e+00 3.5514371770e+00 
77100 2.8778391300e+00 6.5230276021e-05 2.0504232102e+00 -3.5514371770e+00 2.0504232102e+00 3.5514371770e+00 
77200 2.8778391302e+00 6.5213366288e-05 2.0504232102e+00 -3.5514371770e+00 2.0504232102e+00 3.5514371770e+00 
77300 2.8778391303e+00 6.5196590096e-05 2.0504232102e+00 -3.5514371770e+00 2.0504232102e+00 3.5514371770e+00 
77400 2.8778391305e+00 6.5179948158e-05 2.0504232102e+00 -3.5514371770e+00 2.0504232102e+00 3.5514371770e+00 
77500 2.8778391306e+00 6.5163441076e-05 2.0504232102e+00 -3.5514371770e+00 2.0504232102e+00 3.5514371770e+00 
77600 2.8778391308e+00 6.5147069337e-05 2.0504232102e+00 -3.5514371770e+00 2.0504232102e+00 3.5514371770e+00 
77700 2.8778391309e+00 6.5130833329e-05 2.0504232102e+00 -3.5514371770e+00 2.0504232102e+00 3.5514371770e+00 
77800 2.8778391311e+00 6.5114733334e-05 2.0504232102e+00 -3.5514371770e+00 2.0504232102e+00 3.5514371770e+00 
77900 2.8778391312e+00 6.5098769545e-05 2.0504232102e+00 -3.5514371770e+00 2.0504232102e+00 3.5514371770e+00 
78000 2.8778391314e+00 6.5082942062e-05 2.0504232102e+00 -3.5514371770e+00 2.0504232102e+00 3.5514371770e+00 
78100 2.8778391315e+00 6.5067250901e-05 2.0504232102e+00 -3.5514371770e+00 2.0504232102e+00 3.5514371770e+00 
78200 2.8778391316e+00 6.5051695999e-05 2.0504232102e+00 -3.5514371770e+00 2.0504232102e+00 3.5514371770e+00 
78300 2.8778391318e+00 6.5036277217e-05 2.0504232102e+00 -3.5514371770e+00 2.0504232102e+00 3.5514371770e+00 
78400 2.8778391319e+00 6.5020994341e-05 2.0504232102e+00 -3.5514371770e+00 2.0504232102e+00 3.5514371770e+00 
78500 2.8778391320e+00 6.5005847094e-05 2.0504232102e+00 -3.5514371770e+00 2.0504232102e+00 3.5514371770e+00 
78600 2.8778391322e+00 6.4990835132e-05 2.0504232102e+00 -3.5514371770e+00 2.0504232102e+00 3.5514371770e+00 
78700 2.8778391323e+00 6.4975958051e-05 2.0504232102e+00 -3.5514371770e+00 2.0504232102e+00 3.5514371770e+00 
78800 2.8778391324e+00 6.4961215394e-05 2.0504232102e+00 -3.5514371770e+00 2.0504232102e+00 3.5514371770e+00 
78900 2.8778391325e+00 6.4946606647e-05 2.0504232102e+00 -3.5514371770e+00 2.0504232102e+00 3.5514371770e+00 
79000 2.8778391327e+00 6.4932131248e-05 2.0504232102e+00 -3.5514371770e+00 2.0504232102e+00 3.5514371770e+00 
79100 2.8778391328e+00 6.4917788588e-05 2.0504232102e+00 -3.5514371770e+00 2.0504232102e+00 3.5514371770e+00 
79200 2.8778391329e+00 6.4903578016e-05 2.0504232102e+00 -3.5514371770e+00 2.0504232102e+00 3.5514371770e+00 
79300 2.8778391330e+00 6.4889498839e-05 2.0504232102e+00 -3.5514371770e+00 2.0504232102e+00 3.5514371770e+00 
79400 2.8778391332e+00 6.4875550324e-05 2.0504232102e+00 -3.5514371770e+00 2.0504232102e+00 3.5514371770e+00 
79500 2.8778391333e+00 6.4861731707e-05 2.0504232102e+00 -3.5514371770e+00 2.0504232102e+00 3.5514371770e+00 
79600 2.8778391334e+00 6.4848042189e-05 2.0504232102e+00 -3.5514371770e+00 2.0504232102e+00 3.5514371770e+00 
79700 2.8778391335e+00 6.4834480941e-05 2.0504232102e+00 -3.5514371770e+00 2.0504232102e+00 3.5514371770e+00 
79800 2.8778391336e+00 6.4821047104e-05 2.0504232102e+00 -3.5514371770e+00 2.0504232102e+00 3.5514371770e+00 
79900 2.8778391337e+00 6.4807739796e-05 2.0504232102e+00 -3.5514371770e+00 2.0504232102e+00 3.5514371770e+00 
80000 2.8778391338e+00 6.4794558112e-05 2.0504232102e+00 -3.5514371770e+00 2.0504232102e+00 3.5514371770e+00 
80100 2.8778391339e+00 6.4781501121e-05 2.0504232102e+00 -3.5514371770e+00 2.0504232102e+00 3.5514371770e+00 
80200 2.8778391340e+00 6.4768567875e-05 2.0504232102e+00 -3.5514371770e+00 2.0504232102e+00 3.5514371770e+00 
80300 2.8778391341e+00 6.4755757410e-05 2.0504232102e+00 -3.5514371770e+00 2.0504232102e+00 3.5514371770e+00 
80400 2.8778391343e+00 6.4743068741e-05 2.0504232102e+00 -3.5514371770e+00 2.0504232102e+00 3.5514371770e+00 
80500 2.8778391344e+00 6.4730500873e-05 2.0504232102e+00 -3.5514371770e+00 2.0504232102e+00 3.5514371770e+00 
80600 2.8778391345e+00 6.4718052795e-05 2.0504232102e+00 -3.5514371770e+00 2.0504232102e+00 3.5514371770e+00 
80700 2.8778391346e+00 6.4705723484e-05 2.0504232102e+00 -3.5514371770e+00 2.0504232102e+00 3.5514371770e+00 
80800 2.8778391347e+00 6.4693511911e-05 2.0504232102e+00 -3.5514371770e+00 2.0504232102e+00 3.5514371770e+00 
80900 2.8778391347e+00 6.4681417035e-05 2.0504232102e+00 -3.5514371770e+00 2.0504232102e+00 3.5514371770e+00 
81000 2.8778391348e+00 6.4669437806e-05 2.0504232102e+00 -3.5514371770e+00 2.0504232102e+00 3.5514371770e+00 
81100 2.8778391349e+00 6.4657573171e-05 2.0504232102e+00 -3.5514371770e+00 2.0504232102e+00 3.5514371770e+00 
81200 2.8778391350e+00 6.4645822070e-05 2.0504232102e+00 -3.5514371770e+00 2.0504232102e+00 3.5514371770e+00 
81300 2.8778391351e+00 6.4634183442e-05 2.0504232102e+00 -3.5514371770e+00 2.0504232102e+00 3.5514371770e+00 
81400 2.8778391352e+00 6.4622656219e-05 2.0504232102e+00 -3.5514371770e+00 2.0504232102e+00 3.5514371770e+00 
81500 2.8778391353e+00 6.4611239335e-05 2.0504232102e+00 -3.5514371770e+00 2.0504232102e+00 3.5514371770e+00 
81600 2.8778391354e+00 6.4599931719e-05 2.0504232102e+00 -3.5514371770e+00 2.0504232102e+00 3.5514371770e+00 
81700 2.8778391355e+00 6.4588732303e-05 2.0504232102e+00 -3.5514371770e+00 2.0504232102e+00 3.5514371770e+00 
81800 2.8778391356e+00 6.4577640018e-05 2.0504232102e+00 -3.5514371770e+00 2.0504232102e+00 3.5514371770e+00 
81900 2.8778391357e+00 6.4566653797e-05 2.0504232102e+00 -3.5514371770e+00 2.0504232102e+00 3.5514371770e+00 
82000 2.8778391357e+00 6.4555772576e-05 2.0504232102e+00 -3.5514371770e+00 2.0504232102e+00 3.5514371770e+00 
82100 2.8778391358e+00 6.4544995293e-05 2.0504232102e+00 -3.5514371770e+00 2.0504232102e+00 3.5514371770e+00 
82200 2.8778391359e+00 6.4534320892e-05 2.0504232102e+00 -3.5514371770e+00 2.0504232102e+00 3.5514371770e+00 
82300 2.8778391360e+00 6.4523748316e-05 2.0504232102e+00 -3.5514371770e+00 2.0504232102e+00 3.5514371770e+00 
82400 2.8778391361e+00 6.4513276518e-05 2.0504232102e+00 -3.5514371770e+00 2.0504232102e+00 3.5514371770e+00 
82500 2.8778391361e+00 6.4502904455e-05 2.0504232102e+00 -3.5514371770e+00 2.0504232102e+00 3.5514371770e+00 
82600 2.8778391362e+00 6.4492631088e-05 2.0504232102e+00 -3.5514371770e+00 2.0504232102e+00 3.5514371770e+00 
82700 2.8778391363e+00 6.4482455388e-05 2.0504232102e+00 -3.5514371770e+00 2.0504232102e+00 3.5514371770e+00 
82800 2.8778391364e+00 6.4472376328e-05 2.0504232102e+00 -3.5514371770e+00 2.0504232102e+00 3.5514371770e+00 
82900 2.8778391364e+00 6.4462392892e-05 2.0504232102e+00 -3.5514371770e+00 2.0504232102e+00 3.5514371770e+00 
83000 2.8778391365e+00 6.4452504071e-05 2.0504232102e+00 -3.5514371770e+00 2.0504232102e+00 3.5514371770e+00 
83100 2.8778391366e+00 6.4442708863e-05 2.0504232102e+00 -3.5514371770e+00 2.0504232102e+00 3.5514371770e+00 
83200 2.8778391367e+00 6.4433006274e-05 2.0504232102e+00 -3.5514371770e+00 2.0504232102e+00 3.5514371770e+00 
83300 2.8778391367e+00 6.4423395321e-05 2.0504232102e+00 -3.5514371770e+00 2.0504232102e+00 3.5514371770e+00 
83400 2.8778391368e+00 6.4413875027e-05 2.0504232102e+00 -3.5514371770e+00 2.0504232102e+00 3.5514371770e+00 
83500 2.8778391369e+00 6.4404444424e-05 2.0504232102e+00 -3.5514371770e+00 2.0504232102e+00 3.5514371770e+00 
83600 2.8778391369e+00 6.4395102558e-05 2.0504232102e+00 -3.5514371770e+00 2.0504232102e+00 3.5514371770e+00 
83700 2.8778391370e+00 6.4385848478e-05 2.0504232102e+00 -3.5514371770e+00 2.0504232102e+00 3.5514371770e+00 
83800 2.8778391371e+00 6.4376681246e-05 2.0504232102e+00 -3.5514371770e+00 2.0504232102e+00 3.5514371770e+00 
83900 2.8778391371e+00 6.4367599935e-05 2.0504232102e+00 -3.5514371770e+00 2.0504232102e+00 3.5514371770e+00 
84000 2.8778391372e+00 6.4358603625e-05 2.0504232102e+00 -3.5514371770e+00 2.0504232102e+00 3.5514371770e+00 
84100 2.8778391373e+00 6.4349691410e-05 2.0504232102e+00 -3.5514371770e+00 2.0504232102e+00 3.5514371770e+00 
84200 2.8778391373e+00 6.4340862389e-05 2.0504232102e+00 -3.5514371770e+00 2.0504232102e+00 3.5514371770e+00 
84300 2.8778391374e+00 6.4332115676e-05 2.0504232102e+00 -3.5514371770e+00 2.0504232102e+00 3.5514371770e+00 
84400 2.8778391375e+00 6.4323450393e-05 2.0504232102e+00 -3.5514371770e+00 2.0504232102e+00 3.5514371770e+00 
84500 2.8778391375e+00 6.4314865673e-05 2.0504232102e+00 -3.5514371770e+00 2.0504232102e+00 3.5514371770e+00 
84600 2.8778391376e+00 6.4306360658e-05 2.0504232102e+00 -3.5514371770e+00 2.0504232102e+00 3.5514371770e+00 
84700 2.8778391376e+00 6.4297934505e-05 2.0504232102e+00 -3.5514371770e+00 2.0504232102e+00 3.5514371770e+00 
84800 2.8778391377e+00 6.4289586373e-05 2.0504232102e+00 -3.5514371770e+00 2.0504232102e+00 3.5514371770e+00 
84900 2.8778391377e+00 6.4281315441e-05 2.0504232102e+00 -3.5514371770e+00 2.0504232102e+00 3.5514371770e+00 
85000 2.8778391378e+00 6.4273120894e-05 2.0504232102e+00 -3.5514371770e+00 2.0504232102e+00 3.5514371770e+00 
85100 2.8778391379e+00 6.4265001924e-05 2.0504232102e+00 -3.5514371770e+00 2.0504232102e+00 3.5514371770e+00 
85200 2.8778391379e+00 6.4256957739e-05 2.0504232102e+00 -3.5514371770e+00 2.0504232102e+00 3.5514371770e+00 
85300 2.8778391380e+00 6.4248987554e-05 2.0504232102e+00 -3.5514371770e+00 2.0504232102e+00 3.5514371770e+00 
85400 2.8778391380e+00 6.4241090597e-05 2.0504232102e+00 -3.5514371770e+00 2.0504232102e+00 3.5514371770e+00 
85500 2.8778391381e+00 6.4233266103e-05 2.0504232102e+00 -3.5514371770e+00 2.0504232102e+00 3.5514371770e+00 
85600 2.8778391381e+00 6.4225513318e-05 2.0504232102e+00 -3.5514371770e+00 2.0504232102e+00 3.5514371770e+00 
85700 2.8778391382e+00 6.4217831499e-05 2.0504232102e+00 -3.5514371770e+00 2.0504232102e+00 3.5514371770e+00 
85800 2.8778391382e+00 6.4210219912e-05 2.0504232102e+00 -3.5514371770e+00 2.0504232102e+00 3.5514371770e+00 
85900 2.8778391383e+00 6.4202677834e-05 2.0504232102e+00 -3.5514371770e+00 2.0504232102e+00 3.5514371770e+00 
86000 2.8778391383e+00 6.4197737792e-05 2.0504232102e+00 -3.5514371770e+00 2.0504232102e+00 3.5514371770e+00 
86000 2.8778391383e+00 6.4197737792e-05 2.0504232102e+00 -3.5514371770e+00 2.0504232102e+00 3.5514371770e+00 
