# step Hamiltonian StressXX CellTensor1 CellTensor2 CellTensor3 CellTensor4 
0 5.4387848417e+00 5.0124029015e-02 2.8237630504e+00 -4.8909010719e+00 2.8237630504e+00 4.8909010719e+00 
100 5.4399084026e+00 6.1756859198e-02 2.8237630504e+00 -4.8909010719e+00 2.8237630504e+00 4.8909010719e+00 
200 5.4414373595e+00 7.3217595120e-02 2.8226696005e+00 -4.8890071610e+00 2.8226696005e+00 4.8890071610e+00 
300 5.4433121662e+00 8.4542876386e-02 2.8213727433e+00 -4.8867609385e+00 2.8213727433e+00 4.8867609385e+00 
400 5.4454475376e+00 9.5730502718e-02 2.8198746182e+00 -4.8841661096e+00 2.8198746182e+00 4.8841661096e+00 
500 5.4477635893e+00 1.0677628499e-01 2.8181773637e+00 -4.8812263787e+00 2.8181773637e+00 4.8812263787e+00 
600 5.4501858734e+00 1.1767412347e-01 2.8162831552e+00 -4.8779455133e+00 2.8162831552e+00 4.8779455133e+00 
700 5.4526454308e+00 1.2841609428e-01 2.8141942394e+00 -4.8743274051e+00 2.8141942394e+00 4.8743274051e+00 
800 5.4550788536e+00 1.3899255022e-01 2.8119129696e+00 -4.8703761298e+00 2.8119129696e+00 4.8703761298e+00 
900 5.4574283495e+00 1.4939224018e-01 2.8094418375e+00 -4.8660960034e+00 2.8094418375e+00 4.8660960034e+00 
1000 5.4596418030e+00 1.5960244945e-01 2.8067835042e+00 -4.8614916351e+00 2.8067835042e+00 4.8614916351e+00 
1100 5.4616728250e+00 1.6960916199e-01 2.8039408290e+00 -4.8565679772e+00 2.8039408290e+00 4.8565679772e+00 
1200 5.4634807845e+00 1.7939724392e-01 2.8009168950e+00 -4.8513303700e+00 2.8009168950e+00 4.8513303700e+00 
1300 5.4650308166e+00 1.8895064683e-01 2.7977150325e+00 -4.8457845813e+00 2.7977150325e+00 4.8457845813e+00 
1400 5.4662938006e+00 1.9825262772e-01 2.7943388382e+00 -4.8399368413e+00 2.7943388382e+00 4.8399368413e+00 
1500 5.4672463028e+00 2.0728598191e-01 2.7907921919e+00 -4.8337938698e+00 2.7907921919e+00 4.8337938698e+00 
1600 5.4678704805e+00 2.1603328419e-01 2.7870792686e+00 -4.8273628980e+00 2.7870792686e+00 4.8273628980e+00 
1700 5.4681539434e+00 2.2447713291e-01 2.7832045466e+00 -4.8206516826e+00 2.7832045466e+00 4.8206516826e+00 
1800 5.4680895717e+00 2.3260039182e-01 2.7791728120e+00 -4.8136685133e+00 2.7791728120e+00 4.8136685133e+00 
1900 5.4676752887e+00 2.4038642414e-01 2.7749891583e+00 -4.8064222126e+00 2.7749891583e+00 4.8064222126e+00 
2000 5.4669137916e+00 2.4781931434e-01 2.7706589829e+00 -4.7989221289e+00 2.7706589829e+00 4.7989221289e+00 
2100 5.4658122404e+00 2.5488407337e-01 2.7661879791e+00 -4.7911781231e+00 2.7661879791e+00 4.7911781231e+00 
2200 5.4643819109e+00 2.6156682432e-01 2.7615821243e+00 -4.7832005486e+00 2.7615821243e+00 4.7832005486e+00 
2300 5.4626378153e+00 2.6785496637e-01 2.7568476655e+00 -4.7750002254e+00 2.7568476655e+00 4.7750002254e+00 
2400 5.4605982973e+00 2.7373731560e-01 2.7519911012e+00 -4.7665884093e+00 2.7519911012e+00 4.7665884093e+00 
2500 5.4582846074e+00 2.7920422244e-01 2.7470191608e+00 -4.7579767558e+00 2.7470191608e+00 4.7579767558e+00 
2600 5.4557204641e+00 2.8424766555e-01 2.7419387817e+00 -4.7491772811e+00 2.7419387817e+00 4.7491772811e+00 
2700 5.4529316099e+00 2.8886132279e-01 2.7367570843e+00 -4.7402023180e+00 2.7367570843e+00 4.7402023180e+00 
2800 5.4499453650e+00 2.9304061978e-01 2.7314813456e+00 -4.7310644705e+00 2.7314813456e+00 4.7310644705e+00 
2900 5.4467901877e+00 2.9678275673e-01 2.7261189711e+00 -4.7217765654e+00 2.7261189711e+00 4.7217765654e+00 
3000 5.4434952441e+00 3.0008671439e-01 2.7206774662e+00 -4.7123516025e+00 2.7206774662e+00 4.7123516025e+00 
3100 5.4400899951e+00 3.0295323973e-01 2.7151644069e+00 -4.7028027036e+00 2.7151644069e+00 4.7028027036e+00 
3200 5.4366038015e+00 3.0538481243e-01 2.7095874098e+00 -4.6931430613e+00 2.7095874098e+00 4.6931430613e+00 
3300 5.4330655555e+00 3.0738559298e-01 2.7039541031e+00 -4.6833858879e+00 2.7039541031e+00 4.6833858879e+00 
3400 5.4295033378e+00 3.0896135403e-01 2.6982720970e+00 -4.6735443647e+00 2.6982720970e+00 4.6735443647e+00 
3500 5.4259441074e+00 3.1011939628e-01 2.6925489555e+00 -4.6636315927e+00 2.6925489555e+00 4.6636315927e+00 
3600 5.4224134239e+00 3.1086845101e-01 2.6867921686e+00 -4.6536605453e+00 2.6867921686e+00 4.6536605453e+00 
3700 5.4189352061e+00 3.1121857132e-01 2.6810091263e+00 -4.6436440224e+00 2.6810091263e+00 4.6436440224e+00 
3800 5.4155315271e+00 3.1118101441e-01 2.6752070940e+00 -4.6335946075e+00 2.6752070940e+00 4.6335946075e+00 
3900 5.4122224485e+00 3.1076811739e-01 2.6693931886e+00 -4.6235246281e+00 2.6693931886e+00 4.6235246281e+00 
4000 5.4090258923e+00 3.0999316894e-01 2.6635743582e+00 -4.6134461182e+00 2.6635743582e+00 4.6134461182e+00 
4100 5.4059575508e+00 3.0887027938e-01 2.6577573618e+00 -4.6033707849e+00 2.6577573618e+00 4.6033707849e+00 
4200 5.4030308345e+00 3.0741425118e-01 2.6519487525e+00 -4.5933099784e+00 2.6519487525e+00 4.5933099784e+00 
4300 5.4002568539e+00 3.0564045195e-01 2.6461548618e+00 -4.5832746653e+00 2.6461548618e+00 4.5832746653e+00 
4400 5.3976444365e+00 3.0356469165e-01 2.6403817863e+00 -4.5732754053e+00 2.6403817863e+00 4.5732754053e+00 
4500 5.3952001729e+00 3.0120310543e-01 2.6346353768e+00 -4.5633223320e+00 2.6346353768e+00 4.5633223320e+00 
4600 5.3929284918e+00 2.9857204326e-01 2.6289212284e+00 -4.5534251367e+00 2.6289212284e+00 4.5534251367e+00 
4700 5.3908317593e+00 2.9568796710e-01 2.6232446733e+00 -4.5435930549e+00 2.6232446733e+00 4.5435930549e+00 
4800 5.3889103995e+00 2.9256735633e-01 2.6176107753e+00 -4.5338348572e+00 2.6176107753e+00 4.5338348572e+00 
4900 5.3871630325e+00 2.8922662172e-01 2.6120243253e+00 -4.5241588421e+00 2.6120243253e+00 4.5241588421e+00 
5000 5.3855866265e+00 2.8568202803e-01 2.6064898395e+00 -4.5145728315e+00 2.6064898395e+00 4.5145728315e+00 
5100 5.3841766610e+00 2.8194962524e-01 2.6010115579e+00 -4.5050841694e+00 2.6010115579e+00 4.5050841694e+00 
5200 5.3829272966e+00 2.7804518813e-01 2.5955934447e+00 -4.4956997221e+00 2.5955934447e+00 4.4956997221e+00 
5300 5.3818315492e+00 2.7398416404e-01 2.5902391901e+00 -4.4864258810e+00 2.5902391901e+00 4.4864258810e+00 
5400 5.3808814652e+00 2.6978162817e-01 2.5849522124e+00 -4.4772685670e+00 2.5849522124e+00 4.4772685670e+00 
5500 5.3800682946e+00 2.6545224612e-01 2.5797356619e+00 -4.4682332365e+00 2.5797356619e+00 4.4682332365e+00 
5600 5.3793826607e+00 2.6101024304e-01 2.5745924250e+00 -4.4593248888e+00 2.5745924250e+00 4.4593248888e+00 
5700 5.3788147230e+00 2.5646937888e-01 2.5695251292e+00 -4.4505480751e+00 2.5695251292e+00 4.4505480751e+00 
5800 5.3783543321e+00 2.5184292915e-01 2.5645361491e+00 -4.4419069080e+00 2.5645361491e+00 4.4419069080e+00 
5900 5.3779911754e+00 2.4714367063e-01 2.5596276121e+00 -4.4334050726e+00 2.5596276121e+00 4.4334050726e+00 
6000 5.3777149111e+00 2.4238387153e-01 2.5548014055e+00 -4.4250458375e+00 2.5548014055e+00 4.4250458375e+00 
6100 5.3775152917e+00 2.3757528553e-01 2.5500591832e+00 -4.4168320676e+00 2.5500591832e+00 4.4168320676e+00 
6200 5.3773822745e+00 2.3272914923e-01 2.5454023732e+00 -4.4087662360e+00 2.5454023732e+00 4.4087662360e+00 
6300 5.3773061191e+00 2.2785618256e-01 2.5408321849e+00 -4.4008504378e+00 2.5408321849e+00 4.4008504378e+00 
6400 5.3772774730e+00 2.2296659174e-01 2.5363496172e+00 -4.3930864027e+00 2.5363496172e+00 4.3930864027e+00 
6500 5.3772874434e+00 2.1807007438e-01 2.5319554659e+00 -4.3854755094e+00 2.5319554659e+00 4.3854755094e+00 
6600 5.3773276575e+00 2.1317582640e-01 2.5276503318e+00 -4.3780187985e+00 2.5276503318e+00 4.3780187985e+00 
6700 5.3773903102e+00 2.0829255048e-01 2.5234346290e+00 -4.3707169870e+00 2.5234346290e+00 4.3707169870e+00 
6800 5.3774682000e+00 2.0342846571e-01 2.5193085923e+00 -4.3635704817e+00 2.5193085923e+00 4.3635704817e+00 
6900 5.3775547552e+00 1.9859131829e-01 2.5152722855e+00 -4.3565793934e+00 2.5152722855e+00 4.3565793934e+00 
7000 5.3776440486e+00 1.9378839299e-01 2.5113256097e+00 -4.3497435503e+00 2.5113256097e+00 4.3497435503e+00 
7100 5.3777308041e+00 1.8902652517e-01 2.5074683103e+00 -4.3430625118e+00 2.5074683103e+00 4.3430625118e+00 
7200 5.3778103945e+00 1.8431211340e-01 2.5036999856e+00 -4.3365355819e+00 2.5036999856e+00 4.3365355819e+00 
7300 5.3778788313e+00 1.7965113223e-01 2.5000200941e+00 -4.3301618229e+00 2.5000200941e+00 4.3301618229e+00 
7400 5.3779327490e+00 1.7504914525e-01 2.4964279622e+00 -4.3239400679e+00 2.4964279622e+00 4.3239400679e+00 
7500 5.3779693823e+00 1.7051131827e-01 2.4929227916e+00 -4.3178689345e+00 2.4929227916e+00 4.3178689345e+00 
7600 5.3779865394e+00 1.6604243248e-01 2.4895036669e+00 -4.3119468367e+00 2.4895036669e+00 4.3119468367e+00 
7700 5.3779825713e+00 1.6164689756e-01 2.4861695623e+00 -4.3061719982e+00 2.4861695623e+00 4.3061719982e+00 
7800 5.3779563365e+00 1.5732876473e-01 2.4829193491e+00 -4.3005424638e+00 2.4829193491e+00 4.3005424638e+00 
7900 5.3779071651e+00 1.5309173958e-01 2.4797518024e+00 -4.2950561118e+00 2.4797518024e+00 4.2950561118e+00 
8000 5.3778348194e+00 1.4893919471e-01 2.4766656076e+00 -4.2897106658e+00 2.4766656076e+00 4.2897106658e+00 
8100 5.3777394542e+00 1.4487418221e-01 2.4736593677e+00 -4.2845037055e+00 2.4736593677e+00 4.2845037055e+00 
8200 5.3776215762e+00 1.4089944575e-01 2.4707316088e+00 -4.2794326783e+00 2.4707316088e+00 4.2794326783e+00 
8300 5.3774820032e+00 1.3701743247e-01 2.4678807870e+00 -4.2744949100e+00 2.4678807870e+00 4.2744949100e+00 
8400 5.3773218241e+00 1.3323030453e-01 2.4651052940e+00 -4.2696876152e+00 2.4651052940e+00 4.2696876152e+00 
8500 5.3771423590e+00 1.2953995031e-01 2.4624034634e+00 -4.2650079074e+00 2.4624034634e+00 4.2650079074e+00 
8600 5.3769451207e+00 1.2594799535e-01 2.4597735763e+00 -4.2604528093e+00 2.4597735763e+00 4.2604528093e+00 
8700 5.3767317782e+00 1.2245581282e-01 2.4572138666e+00 -4.2560192620e+00 2.4572138666e+00 4.2560192620e+00 
8800 5.3765041209e+00 1.1906453377e-01 2.4547225268e+00 -4.2517041349e+00 2.4547225268e+00 4.2517041349e+00 
8900 5.3762640255e+00 1.1577505693e-01 2.4522977128e+00 -4.2475042339e+00 2.4522977128e+00 4.2475042339e+00 
9000 5.3760134246e+00 1.1258805819e-01 2.4499375495e+00 -4.2434163110e+00 2.4499375495e+00 4.2434163110e+00 
9100 5.3757542775e+00 1.0950399973e-01 2.4476401349e+00 -4.2394370723e+00 2.4476401349e+00 4.2394370723e+00 
9200 5.3754885435e+00 1.0652313880e-01 2.4454035458e+00 -4.2355631864e+00 2.4454035458e+00 4.2355631864e+00 
9300 5.3752181574e+00 1.0364553615e-01 2.4432258416e+00 -4.2317912920e+00 2.4432258416e+00 4.2317912920e+00 
9400 5.3749450074e+00 1.0087106412e-01 2.4411050690e+00 -4.2281180062e+00 2.4411050690e+00 4.2281180062e+00 
9500 5.3746709155e+00 9.8199414473e-02 2.4390392665e+00 -4.2245399312e+00 2.4390392665e+00 4.2245399312e+00 
9600 5.3743976200e+00 9.5630105795e-02 2.4370264679e+00 -4.2210536618e+00 2.4370264679e+00 4.2210536618e+00 
9700 5.3741267608e+00 9.3162490736e-02 2.4350647070e+00 -4.2176557923e+00 2.4350647070e+00 4.2176557923e+00 
9800 5.3738598667e+00 9.0795762896e-02 2.4331520210e+00 -4.2143429229e+00 2.4331520210e+00 4.2143429229e+00 
9900 5.3735983447e+00 8.8528963475e-02 2.4312864543e+00 -4.2111116666e+00 2.4312864543e+00 4.2111116666e+00 
10000 5.3733434723e+00 8.6360987684e-02 2.4294660619e+00 -4.2079586545e+00 2.4294660619e+00 4.2079586545e+00 
10100 5.3730963905e+00 8.4290590942e-02 2.4276889132e+00 -4.2048805426e+00 2.4276889132e+00 4.2048805426e+00 
10200 5.3728580999e+00 8.2316394872e-02 2.4259530949e+00 -4.2018740171e+00 2.4259530949e+00 4.2018740171e+00 
10300 5.3726294585e+00 8.0436893124e-02 2.4242567143e+00 -4.1989357998e+00 2.4242567143e+00 4.1989357998e+00 
10400 5.3724111803e+00 7.8650457058e-02 2.4225979025e+00 -4.1960626535e+00 2.4225979025e+00 4.1960626535e+00 
10500 5.3722038366e+00 7.6955341287e-02 2.4209748171e+00 -4.1932513870e+00 2.4209748171e+00 4.1932513870e+00 
10600 5.3720078584e+00 7.5349689130e-02 2.4193856449e+00 -4.1904988601e+00 2.4193856449e+00 4.1904988601e+00 
10700 5.3718235397e+00 7.3831537982e-02 2.4178286050e+00 -4.1878019878e+00 2.4178286050e+00 4.1878019878e+00 
10800 5.3716510427e+00 7.2398824628e-02 2.4163019508e+00 -4.1851577452e+00 2.4163019508e+00 4.1851577452e+00 
10900 5.3714904037e+00 7.1049390531e-02 2.4148039729e+00 -4.1825631714e+00 2.4148039729e+00 4.1825631714e+00 
11000 5.3713415401e+00 6.9780987105e-02 2.4133330011e+00 -4.1800153734e+00 2.4133330011e+00 4.1800153734e+00 
11100 5.3712042584e+00 6.8591281006e-02 2.4118874066e+00 -4.1775115304e+00 2.4118874066e+00 4.1775115304e+00 
11200 5.3710782622e+00 6.7477859448e-02 2.4104656044e+00 -4.1750488967e+00 2.4104656044e+00 4.1750488967e+00 
11300 5.3709631620e+00 6.6438235580e-02 2.4090660548e+00 -4.1726248057e+00 2.4090660548e+00 4.1726248057e+00 
11400 5.3708584844e+00 6.5469853916e-02 2.4076872654e+00 -4.1702366724e+00 2.4076872654e+00 4.1702366724e+00 
11500 5.3707636821e+00 6.4570095860e-02 2.4063277930e+00 -4.1678819971e+00 2.4063277930e+00 4.1678819971e+00 
11600 5.3706781440e+00 6.3736285314e-02 2.4049862448e+00 -4.1655583675e+00 2.4049862448e+00 4.1655583675e+00 
11700 5.3706012060e+00 6.2965694400e-02 2.4036612803e+00 -4.1632634616e+00 2.4036612803e+00 4.1632634616e+00 
11800 5.3705321607e+00 6.2255549284e-02 2.4023516121e+00 -4.1609950499e+00 2.4023516121e+00 4.1609950499e+00 
11900 5.3704702681e+00 6.1603036115e-02 2.4010560077e+00 -4.1587509971e+00 2.4010560077e+00 4.1587509971e+00 
12000 5.3704147656e+00 6.1005307094e-02 2.3997732898e+00 -4.1565292646e+00 2.3997732898e+00 4.1565292646e+00 
12100 5.3703648776e+00 6.0459486637e-02 2.3985023381e+00 -4.1543279117e+00 2.3985023381e+00 4.1543279117e+00 
12200 5.3703198251e+00 5.9962677668e-02 2.3972420894e+00 -4.1521450969e+00 2.3972420894e+00 4.1521450969e+00 
12300 5.3702788350e+00 5.9511968002e-02 2.3959915386e+00 -4.1499790794e+00 2.3959915386e+00 4.1499790794e+00 
12400 5.3702411480e+00 5.9104436826e-02 2.3947497391e+00 -4.1478282195e+00 2.3947497391e+00 4.1478282195e+00 
12500 5.3702060272e+00 5.8737161258e-02 2.3935158031e+00 -4.1456909796e+00 2.3935158031e+00 4.1456909796e+00 
12600 5.3701727649e+00 5.8407222964e-02 2.3922889020e+00 -4.1435659247e+00 2.3922889020e+00 4.1435659247e+00 
12700 5.3701406893e+00 5.8111714819e-02 2.3910682666e+00 -4.1414517221e+00 2.3910682666e+00 4.1414517221e+00 
12800 5.3701091709e+00 5.7847747589e-02 2.3898531865e+00 -4.1393471416e+00 2.3898531865e+00 4.1393471416e+00 
12900 5.3700776270e+00 5.7612456608e-02 2.3886430104e+00 -4.1372510551e+00 2.3886430104e+00 4.1372510551e+00 
13000 5.3700455264e+00 5.7403008418e-02 2.3874371457e+00 -4.1351624362e+00 2.3874371457e+00 4.1351624362e+00 
13100 5.3700123930e+00 5.7216607362e-02 2.3862350577e+00 -4.1330803588e+00 2.3862350577e+00 4.1330803588e+00 
13200 5.3699778084e+00 5.7050502075e-02 2.3850362694e+00 -4.1310039965e+00 2.3850362694e+00 4.1310039965e+00 
13300 5.3699414140e+00 5.6901991863e-02 2.3838403603e+00 -4.1289326212e+00 2.3838403603e+00 4.1289326212e+00 
13400 5.3699029122e+00 5.6768432926e-02 2.3826469658e+00 -4.1268656012e+00 2.3826469658e+00 4.1268656012e+00 
13500 5.3698620667e+00 5.6647244404e-02 2.3814557759e+00 -4.1248023998e+00 2.3814557759e+00 4.1248023998e+00 
13600 5.3698187025e+00 5.6535914200e-02 2.3802665342e+00 -4.1227425729e+00 2.3802665342e+00 4.1227425729e+00 
13700 5.3697727042e+00 5.6432004566e-02 2.3790790368e+00 -4.1206857669e+00 2.3790790368e+00 4.1206857669e+00 
13800 5.3697240148e+00 5.6333157407e-02 2.3778931301e+00 -4.1186317163e+00 2.3778931301e+00 4.1186317163e+00 
13900 5.3696726334e+00 5.6237099283e-02 2.3767087102e+00 -4.1165802409e+00 2.3767087102e+00 4.1165802409e+00 
14000 5.3696186120e+00 5.6141646082e-02 2.3755257207e+00 -4.1145312429e+00 2.3755257207e+00 4.1145312429e+00 
14100 5.3695620521e+00 5.6044707330e-02 2.3743441509e+00 -4.1124847039e+00 2.3743441509e+00 4.1124847039e+00 
14200 5.3695031011e+00 5.5944290132e-02 2.3731640342e+00 -4.1104406819e+00 2.3731640342e+00 4.1104406819e+00 
14300 5.3694419476e+00 5.5838502704e-02 2.3719854461e+00 -4.1083993075e+00 2.3719854461e+00 4.1083993075e+00 
14400 5.3693788174e+00 5.5725557498e-02 2.3708085021e+00 -4.1063607806e+00 2.3708085021e+00 4.1063607806e+00 
14500 5.3693139681e+00 5.5603773897e-02 2.3696333555e+00 -4.1043253670e+00 2.3696333555e+00 4.1043253670e+00 
14600 5.3692476844e+00 5.5471580460e-02 2.3684601954e+00 -4.1022933942e+00 2.3684601954e+00 4.1022933942e+00 
14700 5.3691802731e+00 5.5327516737e-02 2.3672892446e+00 -4.1002652479e+00 2.3672892446e+00 4.1002652479e+00 
14800 5.3691120578e+00 5.5170234618e-02 2.3661207570e+00 -4.0982413680e+00 2.3661207570e+00 4.0982413680e+00 
14900 5.3690433736e+00 5.4998499241e-02 2.3649550156e+00 -4.0962222446e+00 2.3649550156e+00 4.0962222446e+00 
15000 5.3689745625e+00 5.4811189443e-02 2.3637923298e+00 -4.0942084138e+00 2.3637923298e+00 4.0942084138e+00 
15100 5.3689059683e+00 5.4607297777e-02 2.3626330337e+00 -4.0922004540e+00 2.3626330337e+00 4.0922004540e+00 
15200 5.3688379319e+00 5.4385930090e-02 2.3614774830e+00 -4.0901989815e+00 2.3614774830e+00 4.0901989815e+00 
15300 5.3687707869e+00 5.4146304680e-02 2.3603260533e+00 -4.0882046467e+00 2.3603260533e+00 4.0882046467e+00 
15400 5.3687048559e+00 5.3887751049e-02 2.3591791372e+00 -4.0862181298e+00 2.3591791372e+00 4.0862181298e+00 
15500 5.3686404460e+00 5.3609708267e-02 2.3580371425e+00 -4.0842401370e+00 2.3580371425e+00 4.0842401370e+00 
15600 5.3685778460e+00 5.3311722957e-02 2.3569004895e+00 -4.0822713963e+00 2.3569004895e+00 4.0822713963e+00 
15700 5.3685173235e+00 5.2993446944e-02 2.3557696090e+00 -4.0803126537e+00 2.3557696090e+00 4.0803126537e+00 
15800 5.3684591217e+00 5.2654634569e-02 2.3546449399e+00 -4.0783646696e+00 2.3546449399e+00 4.0783646696e+00 
15900 5.3684034579e+00 5.2295139700e-02 2.3535269270e+00 -4.0764282146e+00 2.3535269270e+00 4.0764282146e+00 
16000 5.3683505216e+00 5.1914912471e-02 2.3524160193e+00 -4.0745040660e+00 2.3524160193e+00 4.0745040660e+00 
16100 5.3683004729e+00 5.1513995766e-02 2.3513126675e+00 -4.0725930045e+00 2.3513126675e+00 4.0725930045e+00 
16200 5.3682534425e+00 5.1092521481e-02 2.3502173220e+00 -4.0706958105e+00 2.3502173220e+00 4.0706958105e+00 
16300 5.3682095304e+00 5.0650706580e-02 2.3491304314e+00 -4.0688132608e+00 2.3491304314e+00 4.0688132608e+00 
16400 5.3681688063e+00 5.0188848991e-02 2.3480524404e+00 -4.0669461256e+00 2.3480524404e+00 4.0669461256e+00 
16500 5.3681313102e+00 4.9707323346e-02 2.3469837879e+00 -4.0650951652e+00 2.3469837879e+00 4.0650951652e+00 
16600 5.3680970527e+00 4.9206576608e-02 2.3459249058e+00 -4.0632611276e+00 2.3459249058e+00 4.0632611276e+00 
16700 5.3680660164e+00 4.8687123594e-02 2.3448762169e+00 -4.0614447451e+00 2.3448762169e+00 4.0614447451e+00 
16800 5.3680381570e+00 4.8149542440e-02 2.3438381338e+00 -4.0596467324e+00 2.3438381338e+00 4.0596467324e+00 
16900 5.3680134052e+00 4.7594470010e-02 2.3428110572e+00 -4.0578677836e+00 2.3428110572e+00 4.0578677836e+00 
17000 5.3679916682e+00 4.7022597282e-02 2.3417953750e+00 -4.0561085704e+00 2.3417953750e+00 4.0561085704e+00 
17100 5.3679728321e+00 4.6434664728e-02 2.3407914607e+00 -4.0543697399e+00 2.3407914607e+00 4.0543697399e+00 
17200 5.3679567639e+00 4.5831457719e-02 2.3397996726e+00 -4.0526519125e+00 2.3397996726e+00 4.0526519125e+00 
17300 5.3679433137e+00 4.5213801954e-02 2.3388203525e+00 -4.0509556802e+00 2.3388203525e+00 4.0509556802e+00 
17400 5.3679323175e+00 4.4582558945e-02 2.3378538249e+00 -4.0492816054e+00 2.3378538249e+00 4.0492816054e+00 
17500 5.3679235990e+00 4.3938621572e-02 2.3369003964e+00 -4.0476302189e+00 2.3369003964e+00 4.0476302189e+00 
17600 5.3679169726e+00 4.3282909721e-02 2.3359603548e+00 -4.0460020190e+00 2.3359603548e+00 4.0460020190e+00 
17700 5.3679122456e+00 4.2616366013e-02 2.3350339682e+00 -4.0443974703e+00 2.3350339682e+00 4.0443974703e+00 
17800 5.3679092204e+00 4.1939951643e-02 2.3341214849e+00 -4.0428170029e+00 2.3341214849e+00 4.0428170029e+00 
17900 5.3679076973e+00 4.1254642343e-02 2.3332231328e+00 -4.0412610114e+00 2.3332231328e+00 4.0412610114e+00 
18000 5.3679074761e+00 4.0561424463e-02 2.3323391188e+00 -4.0397298543e+00 2.3323391188e+00 4.0397298543e+00 
18100 5.3679083585e+00 3.9861291201e-02 2.3314696290e+00 -4.0382238537e+00 2.3314696290e+00 4.0382238537e+00 
18200 5.3679101500e+00 3.9155238963e-02 2.3306148279e+00 -4.0367432948e+00 2.3306148279e+00 4.0367432948e+00 
18300 5.3679126617e+00 3.8444263882e-02 2.3297748589e+00 -4.0352884258e+00 2.3297748589e+00 4.0352884258e+00 
18400 5.3679157119e+00 3.7729358490e-02 2.3289498437e+00 -4.0338594575e+00 2.3289498437e+00 4.0338594575e+00 
18500 5.3679191275e+00 3.7011508549e-02 2.3281398827e+00 -4.0324565639e+00 2.3281398827e+00 4.0324565639e+00 
18600 5.3679227450e+00 3.6291690039e-02 2.3273450550e+00 -4.0310798819e+00 2.3273450550e+00 4.0310798819e+00 
18700 5.3679264124e+00 3.5570866318e-02 2.3265654185e+00 -4.0297295119e+00 2.3265654185e+00 4.0297295119e+00 
18800 5.3679299890e+00 3.4849985441e-02 2.3258010102e+00 -4.0284055179e+00 2.3258010102e+00 4.0284055179e+00 
18900 5.3679333471e+00 3.4129977653e-02 2.3250518465e+00 -4.0271079283e+00 2.3250518465e+00 4.0271079283e+00 
19000 5.3679363716e+00 3.3411753040e-02 2.3243179235e+00 -4.0258367364e+00 2.3243179235e+00 4.0258367364e+00 
19100 5.3679389611e+00 3.2696199355e-02 2.3235992173e+00 -4.0245919008e+00 2.3235992173e+00 4.0245919008e+00 
19200 5.3679410277e+00 3.1984180001e-02 2.3228956849e+00 -4.0233733469e+00 2.3228956849e+00 4.0233733469e+00 
19300 5.3679424972e+00 3.1276532182e-02 2.3222072640e+00 -4.0221809669e+00 2.3222072640e+00 4.0221809669e+00 
19400 5.3679433087e+00 3.0574065218e-02 2.3215338740e+00 -4.0210146213e+00 2.3215338740e+00 4.0210146213e+00 
19500 5.3679434147e+00 2.9877559009e-02 2.3208754167e+00 -4.0198741398e+00 2.3208754167e+00 4.0198741398e+00 
19600 5.3679427802e+00 2.9187762668e-02 2.3202317764e+00 -4.0187593221e+00 2.3202317764e+00 4.0187593221e+00 
19700 5.3679413828e+00 2.8505393293e-02 2.3196028211e+00 -4.0176699395e+00 2.3196028211e+00 4.0176699395e+00 
19800 5.3679392117e+00 2.7831134898e-02 2.3189884027e+00 -4.0166057356e+00 2.3189884027e+00 4.0166057356e+00 
19900 5.3679362670e+00 2.7165637485e-02 2.3183883580e+00 -4.0155664277e+00 2.3183883580e+00 4.0155664277e+00 
20000 5.3679325593e+00 2.6509516255e-02 2.3178025093e+00 -4.0145517081e+00 2.3178025093e+00 4.0145517081e+00 
20100 5.3679281082e+00 2.5863350958e-02 2.3172306654e+00 -4.0135612453e+00 2.3172306654e+00 4.0135612453e+00 
20200 5.3679229424e+00 2.5227685375e-02 2.3166726218e+00 -4.0125946855e+00 2.3166726218e+00 4.0125946855e+00 
20300 5.3679170976e+00 2.4603026927e-02 2.3161281622e+00 -4.0116516537e+00 2.3161281622e+00 4.0116516537e+00 
20400 5.3679106169e+00 2.3989846401e-02 2.3155970584e+00 -4.0107317550e+00 2.3155970584e+00 4.0107317550e+00 
20500 5.3679035486e+00 2.3388577806e-02 2.3150790721e+00 -4.0098345764e+00 2.3150790721e+00 4.0098345764e+00 
20600 5.3678959462e+00 2.2799618327e-02 2.3145739549e+00 -4.0089596877e+00 2.3145739549e+00 4.0089596877e+00 
20700 5.3678878671e+00 2.2223328394e-02 2.3140814493e+00 -4.0081066431e+00 2.3140814493e+00 4.0081066431e+00 
20800 5.3678793716e+00 2.1660031856e-02 2.3136012899e+00 -4.0072749826e+00 2.3136012899e+00 4.0072749826e+00 
20900 5.3678705222e+00 2.1110016248e-02 2.3131332036e+00 -4.0064642334e+00 2.3131332036e+00 4.0064642334e+00 
21000 5.3678613828e+00 2.0573533147e-02 2.3126769108e+00 -4.0056739110e+00 2.3126769108e+00 4.0056739110e+00 
21100 5.3678520177e+00 2.0050798625e-02 2.3122321259e+00 -4.0049035210e+00 2.3122321259e+00 4.0049035210e+00 
21200 5.3678424912e+00 1.9541993776e-02 2.3117985585e+00 -4.0041525601e+00 2.3117985585e+00 4.0041525601e+00 
21300 5.3678328665e+00 1.9047265324e-02 2.3113759136e+00 -4.0034205177e+00 2.3113759136e+00 4.0034205177e+00 
21400 5.3678232053e+00 1.8566726300e-02 2.3109638928e+00 -4.0027068767e+00 2.3109638928e+00 4.0027068767e+00 
21500 5.3678135671e+00 1.8100456795e-02 2.3105621948e+00 -4.0020111155e+00 2.3105621948e+00 4.0020111155e+00 
21600 5.3678040089e+00 1.7648504762e-02 2.3101705164e+00 -4.0013327086e+00 2.3101705164e+00 4.0013327086e+00 
21700 5.3677945845e+00 1.7210886892e-02 2.3097885529e+00 -4.0006711284e+00 2.3097885529e+00 4.0006711284e+00 
21800 5.3677853441e+00 1.6787589529e-02 2.3094159988e+00 -4.0000258457e+00 2.3094159988e+00 4.0000258457e+00 
21900 5.3677763344e+00 1.6378569646e-02 2.3090525487e+00 -3.9993963317e+00 2.3090525487e+00 3.9993963317e+00 
22000 5.3677675977e+00 1.5983755859e-02 2.3086978978e+00 -3.9987820584e+00 2.3086978978e+00 3.9987820584e+00 
22100 5.3677591722e+00 1.5603049481e-02 2.3083517426e+00 -3.9981824999e+00 2.3083517426e+00 3.9981824999e+00 
22200 5.3677510914e+00 1.5236325616e-02 2.3080137814e+00 -3.9975971339e+00 2.3080137814e+00 3.9975971339e+00 
22300 5.3677433846e+00 1.4883434284e-02 2.3076837148e+00 -3.9970254419e+00 2.3076837148e+00 3.9970254419e+00 
22400 5.3677360763e+00 1.4544201573e-02 2.3073612467e+00 -3.9964669107e+00 2.3073612467e+00 3.9964669107e+00 
22500 5.3677291865e+00 1.4218430816e-02 2.3070460843e+00 -3.9959210334e+00 2.3070460843e+00 3.9959210334e+00 
22600 5.3677227307e+00 1.3905903789e-02 2.3067379389e+00 -3.9953873099e+00 2.3067379389e+00 3.9953873099e+00 
22700 5.3677167201e+00 1.3606381926e-02 2.3064365262e+00 -3.9948652478e+00 2.3064365262e+00 3.9948652478e+00 
22800 5.3677111613e+00 1.3319607544e-02 2.3061415670e+00 -3.9943543636e+00 2.3061415670e+00 3.9943543636e+00 
22900 5.3677060574e+00 1.3045305087e-02 2.3058527875e+00 -3.9938541828e+00 2.3058527875e+00 3.9938541828e+00 
23000 5.3677014070e+00 1.2783182365e-02 2.3055699195e+00 -3.9933642410e+00 2.3055699195e+00 3.9933642410e+00 
23100 5.3676972056e+00 1.2532931805e-02 2.3052927012e+00 -3.9928840848e+00 2.3052927012e+00 3.9928840848e+00 
23200 5.3676934449e+00 1.2294231696e-02 2.3050208770e+00 -3.9924132715e+00 2.3050208770e+00 3.9924132715e+00 
23300 5.3676901138e+00 1.2066747442e-02 2.3047541984e+00 -3.9919513706e+00 2.3047541984e+00 3.9919513706e+00 
23400 5.3676871983e+00 1.1850132792e-02 2.3044924239e+00 -3.9914979638e+00 2.3044924239e+00 3.9914979638e+00 
23500 5.3676846818e+00 1.1644031080e-02 2.3042353193e+00 -3.9910526456e+00 2.3042353193e+00 3.9910526456e+00 
23600 5.3676825455e+00 1.1448076439e-02 2.3039826581e+00 -3.9906150235e+00 2.3039826581e+00 3.9906150235e+00 
23700 5.3676807690e+00 1.1261895014e-02 2.3037342215e+00 -3.9901847188e+00 2.3037342215e+00 3.9901847188e+00 
23800 5.3676793300e+00 1.1085106146e-02 2.3034897989e+00 -3.9897613663e+00 2.3034897989e+00 3.9897613663e+00 
23900 5.3676782050e+00 1.0917323545e-02 2.3032491876e+00 -3.9893446153e+00 2.3032491876e+00 3.9893446153e+00 
24000 5.3676773697e+00 1.0758156444e-02 2.3030121933e+00 -3.9889341293e+00 2.3030121933e+00 3.9889341293e+00 
24100 5.3676767989e+00 1.0607210720e-02 2.3027786302e+00 -3.9885295861e+00 2.3027786302e+00 3.9885295861e+00 
24200 5.3676764673e+00 1.0464090004e-02 2.3025483207e+00 -3.9881306784e+00 2.3025483207e+00 3.9881306784e+00 
24300 5.3676763491e+00 1.0328396745e-02 2.3023210960e+00 -3.9877371136e+00 2.3023210960e+00 3.9877371136e+00 
24400 5.3676764191e+00 1.0199733266e-02 2.3020967956e+00 -3.9873486140e+00 2.3020967956e+00 3.9873486140e+00 
24500 5.3676766520e+00 1.0077702768e-02 2.3018752678e+00 -3.9869649166e+00 2.3018752678e+00 3.9869649166e+00 
24600 5.3676770235e+00 9.9619103203e-03 2.3016563693e+00 -3.9865857732e+00 2.3016563693e+00 3.9865857732e+00 
24700 5.3676775098e+00 9.8519638018e-03 2.3014399653e+00 -3.9862109504e+00 2.3014399653e+00 3.9862109504e+00 
24800 5.3676780883e+00 9.7474748146e-03 2.3012259295e+00 -3.9858402295e+00 2.3012259295e+00 3.9858402295e+00 
24900 5.3676787372e+00 9.6480595584e-03 2.3010141440e+00 -3.9854734063e+00 2.3010141440e+00 3.9854734063e+00 
25000 5.3676794362e+00 9.5533396661e-03 2.3008044992e+00 -3.9851102908e+00 2.3008044992e+00 3.9851102908e+00 
25100 5.3676801665e+00 9.4629430011e-03 2.3005968936e+00 -3.9847507075e+00 2.3005968936e+00 3.9847507075e+00 
25200 5.3676809104e+00 9.3765044131e-03 2.3003912339e+00 -3.9843944944e+00 2.3003912339e+00 3.9843944944e+00 
25300 5.3676816519e+00 9.2936664537e-03 2.3001874345e+00 -3.9840415035e+00 2.3001874345e+00 3.9840415035e+00 
25400 5.3676823768e+00 9.2140800492e-03 2.2999854177e+00 -3.9836916001e+00 2.2999854177e+00 3.9836916001e+00 
25500 5.3676830721e+00 9.1374051314e-03 2.2997851133e+00 -3.9833446626e+00 2.2997851133e+00 3.9833446626e+00 
25600 5.3676837268e+00 9.0633112251e-03 2.2995864583e+00 -3.9830005822e+00 2.2995864583e+00 3.9830005822e+00 
25700 5.3676843313e+00 8.9914779918e-03 2.2993893972e+00 -3.9826592623e+00 2.2993893972e+00 3.9826592623e+00 
25800 5.3676848778e+00 8.9215957300e-03 2.2991938811e+00 -3.9823206186e+00 2.2991938811e+00 3.9823206186e+00 
25900 5.3676853598e+00 8.8533658317e-03 2.2989998681e+00 -3.9819845782e+00 2.2989998681e+00 3.9819845782e+00 
26000 5.3676857726e+00 8.7865011948e-03 2.2988073226e+00 -3.9816510796e+00 2.2988073226e+00 3.9816510796e+00 
26100 5.3676861127e+00 8.7207265915e-03 2.2986162153e+00 -3.9813200720e+00 2.2986162153e+00 3.9813200720e+00 
26200 5.3676863782e+00 8.6557789936e-03 2.2984265227e+00 -3.9809915149e+00 2.2984265227e+00 3.9809915149e+00 
26300 5.3676865684e+00 8.5914078540e-03 2.2982382274e+00 -3.9806653777e+00 2.2982382274e+00 3.9806653777e+00 
26400 5.3676866838e+00 8.5273753459e-03 2.2980513170e+00 -3.9803416395e+00 2.2980513170e+00 3.9803416395e+00 
26500 5.3676867260e+00 8.4634565593e-03 2.2978657846e+00 -3.9800202879e+00 2.2978657846e+00 3.9800202879e+00 
26600 5.3676866975e+00 8.3994396559e-03 2.2976816280e+00 -3.9797013193e+00 2.2976816280e+00 3.9797013193e+00 
26700 5.3676866019e+00 8.3351259838e-03 2.2974988496e+00 -3.9793847379e+00 2.2974988496e+00 3.9793847379e+00 
26800 5.3676864435e+00 8.2703301509e-03 2.2973174564e+00 -3.9790705556e+00 2.2973174564e+00 3.9790705556e+00 
26900 5.3676862271e+00 8.2048800607e-03 2.2971374590e+00 -3.9787587910e+00 2.2971374590e+00 3.9787587910e+00 
27000 5.3676859583e+00 8.1386169087e-03 2.2969588721e+00 -3.9784494694e+00 2.2969588721e+00 3.9784494694e+00 
27100 5.3676856430e+00 8.0713951431e-03 2.2967817137e+00 -3.9781426220e+00 2.2967817137e+00 3.9781426220e+00 
27200 5.3676852875e+00 8.0030823889e-03 2.2966060049e+00 -3.9778382855e+00 2.2966060049e+00 3.9778382855e+00 
27300 5.3676848983e+00 7.9335593377e-03 2.2964317700e+00 -3.9775365017e+00 2.2964317700e+00 3.9775365017e+00 
27400 5.3676844821e+00 7.8627196048e-03 2.2962590355e+00 -3.9772373168e+00 2.2962590355e+00 3.9772373168e+00 
27500 5.3676840455e+00 7.7904695544e-03 2.2960878304e+00 -3.9769407810e+00 2.2960878304e+00 3.9769407810e+00 
27600 5.3676835951e+00 7.7167280938e-03 2.2959181859e+00 -3.9766469481e+00 2.2959181859e+00 3.9766469481e+00 
27700 5.3676831376e+00 7.6414264400e-03 2.2957501348e+00 -3.9763558749e+00 2.2957501348e+00 3.9763558749e+00 
27800 5.3676826790e+00 7.5645078582e-03 2.2955837113e+00 -3.9760676210e+00 2.2955837113e+00 3.9760676210e+00 
27900 5.3676822256e+00 7.4859273749e-03 2.2954189511e+00 -3.9757822480e+00 2.2954189511e+00 3.9757822480e+00 
28000 5.3676817830e+00 7.4056514671e-03 2.2952558907e+00 -3.9754998191e+00 2.2952558907e+00 3.9754998191e+00 
28100 5.3676813565e+00 7.3236577286e-03 2.2950945674e+00 -3.9752203989e+00 2.2950945674e+00 3.9752203989e+00 
28200 5.3676809509e+00 7.2399345161e-03 2.2949350190e+00 -3.9749440530e+00 2.2949350190e+00 3.9749440530e+00 
28300 5.3676805708e+00 7.1544805757e-03 2.2947772836e+00 -3.9746708472e+00 2.2947772836e+00 3.9746708472e+00 
28400 5.3676802199e+00 7.0673046521e-03 2.2946213992e+00 -3.9744008475e+00 2.2946213992e+00 3.9744008475e+00 
28500 5.3676799018e+00 6.9784250825e-03 2.2944674037e+00 -3.9741341196e+00 2.2944674037e+00 3.9741341196e+00 
28600 5.3676796192e+00 6.8878693753e-03 2.2943153347e+00 -3.9738707283e+00 2.2943153347e+00 3.9738707283e+00 
28700 5.3676793746e+00 6.7956737772e-03 2.2941652290e+00 -3.9736107377e+00 2.2941652290e+00 3.9736107377e+00 
28800 5.3676791698e+00 6.7018828296e-03 2.2940171229e+00 -3.9733542103e+00 2.2940171229e+00 3.9733542103e+00 
28900 5.3676790061e+00 6.6065489148e-03 2.2938710513e+00 -3.9731012069e+00 2.2938710513e+00 3.9731012069e+00 
29000 5.3676788842e+00 6.5097317958e-03 2.2937270485e+00 -3.9728517867e+00 2.2937270485e+00 3.9728517867e+00 
29100 5.3676788044e+00 6.4114981489e-03 2.2935851470e+00 -3.9726060061e+00 2.2935851470e+00 3.9726060061e+00 
29200 5.3676787666e+00 6.3119210929e-03 2.2934453782e+00 -3.9723639195e+00 2.2934453782e+00 3.9723639195e+00 
29300 5.3676787701e+00 6.2110797145e-03 2.2933077718e+00 -3.9721255781e+00 2.2933077718e+00 3.9721255781e+00 
29400 5.3676788139e+00 6.1090585922e-03 2.2931723556e+00 -3.9718910304e+00 2.2931723556e+00 3.9718910304e+00 
29500 5.3676788967e+00 6.0059473207e-03 2.2930391559e+00 -3.9716603217e+00 2.2930391559e+00 3.9716603217e+00 
29600 5.3676790165e+00 5.9018400358e-03 2.2929081967e+00 -3.9714334937e+00 2.2929081967e+00 3.9714334937e+00 
29700 5.3676791715e+00 5.7968349421e-03 2.2927795002e+00 -3.9712105849e+00 2.2927795002e+00 3.9712105849e+00 
29800 5.3676793592e+00 5.6910338447e-03 2.2926530863e+00 -3.9709916297e+00 2.2926530863e+00 3.9709916297e+00 
29900 5.3676795772e+00 5.5845416860e-03 2.2925289729e+00 -3.9707766588e+00 2.2925289729e+00 3.9707766588e+00 
30000 5.3676798227e+00 5.4774660878e-03 2.2924071752e+00 -3.9705656991e+00 2.2924071752e+00 3.9705656991e+00 
30100 5.3676800928e+00 5.3699169024e-03 2.2922877065e+00 -3.9703587733e+00 2.2922877065e+00 3.9703587733e+00 
30200 5.3676803846e+00 5.2620057702e-03 2.2921705774e+00 -3.9701558997e+00 2.2921705774e+00 3.9701558997e+00 
30300 5.3676806951e+00 5.1538456880e-03 2.2920557962e+00 -3.9699570929e+00 2.2920557962e+00 3.9699570929e+00 
30400 5.3676810211e+00 5.0455505870e-03 2.2919433687e+00 -3.9697623627e+00 2.2919433687e+00 3.9697623627e+00 
30500 5.3676813597e+00 4.9372349219e-03 2.2918332981e+00 -3.9695717149e+00 2.2918332981e+00 3.9695717149e+00 
30600 5.3676817078e+00 4.8290132722e-03 2.2917255853e+00 -3.9693851508e+00 2.2917255853e+00 3.9693851508e+00 
30700 5.3676820625e+00 4.7209999560e-03 2.2916202286e+00 -3.9692026675e+00 2.2916202286e+00 3.9692026675e+00 
30800 5.3676824210e+00 4.6133086573e-03 2.2915172236e+00 -3.9690242577e+00 2.2915172236e+00 3.9690242577e+00 
30900 5.3676827806e+00 4.5060520674e-03 2.2914165638e+00 -3.9688499098e+00 2.2914165638e+00 3.9688499098e+00 
31000 5.3676831387e+00 4.3993415402e-03 2.2913182399e+00 -3.9686796078e+00 2.2913182399e+00 3.9686796078e+00 
31100 5.3676834929e+00 4.2932867639e-03 2.2912222403e+00 -3.9685133317e+00 2.2912222403e+00 3.9685133317e+00 
31200 5.3676838411e+00 4.1879954467e-03 2.2911285511e+00 -3.9683510571e+00 2.2911285511e+00 3.9683510571e+00 
31300 5.3676841812e+00 4.0835730199e-03 2.2910371558e+00 -3.9681927558e+00 2.2910371558e+00 3.9681927558e+00 
31400 5.3676845115e+00 3.9801223557e-03 2.2909480357e+00 -3.9680383954e+00 2.2909480357e+00 3.9680383954e+00 
31500 5.3676848303e+00 3.8777435029e-03 2.2908611700e+00 -3.9678879395e+00 2.2908611700e+00 3.9678879395e+00 
31600 5.3676851363e+00 3.7765334384e-03 2.2907765355e+00 -3.9677413482e+00 2.2907765355e+00 3.9677413482e+00 
31700 5.3676854285e+00 3.6765858364e-03 2.2906941069e+00 -3.9675985777e+00 2.2906941069e+00 3.9675985777e+00 
31800 5.3676857059e+00 3.5779908535e-03 2.2906138568e+00 -3.9674595806e+00 2.2906138568e+00 3.9674595806e+00 
31900 5.3676859678e+00 3.4808349321e-03 2.2905357562e+00 -3.9673243062e+00 2.2905357562e+00 3.9673243062e+00 
32000 5.3676862137e+00 3.3852006201e-03 2.2904597736e+00 -3.9671927006e+00 2.2904597736e+00 3.9671927006e+00 
32100 5.3676864435e+00 3.2911664082e-03 2.2903858761e+00 -3.9670647064e+00 2.2903858761e+00 3.9670647064e+00 
32200 5.3676866570e+00 3.1988065832e-03 2.2903140291e+00 -3.9669402637e+00 2.2903140291e+00 3.9669402637e+00 
32300 5.3676868545e+00 3.1081910996e-03 2.2902441961e+00 -3.9668193094e+00 2.2902441961e+00 3.9668193094e+00 
32400 5.3676870361e+00 3.0193854665e-03 2.2901763392e+00 -3.9667017778e+00 2.2901763392e+00 3.9667017778e+00 
32500 5.3676872024e+00 2.9324506521e-03 2.2901104192e+00 -3.9665876010e+00 2.2901104192e+00 3.9665876010e+00 
32600 5.3676873539e+00 2.8474430036e-03 2.2900463953e+00 -3.9664767083e+00 2.2900463953e+00 3.9664767083e+00 
32700 5.3676874915e+00 2.7644141835e-03 2.2899842256e+00 -3.9663690272e+00 2.2899842256e+00 3.9663690272e+00 
32800 5.3676876160e+00 2.6834111213e-03 2.2899238670e+00 -3.9662644831e+00 2.2899238670e+00 3.9662644831e+00 
32900 5.3676877284e+00 2.6044759808e-03 2.2898652756e+00 -3.9661629997e+00 2.2898652756e+00 3.9661629997e+00 
33000 5.3676878297e+00 2.5276461421e-03 2.2898084062e+00 -3.9660644991e+00 2.2898084062e+00 3.9660644991e+00 
33100 5.3676879209e+00 2.4529541978e-03 2.2897532130e+00 -3.9659689017e+00 2.2897532130e+00 3.9659689017e+00 
33200 5.3676880034e+00 2.3804279642e-03 2.2896996495e+00 -3.9658761269e+00 2.2896996495e+00 3.9658761269e+00 
33300 5.3676880782e+00 2.3100905049e-03 2.2896476684e+00 -3.9657860932e+00 2.2896476684e+00 3.9657860932e+00 
33400 5.3676881466e+00 2.2419601682e-03 2.2895972222e+00 -3.9656987177e+00 2.2895972222e+00 3.9656987177e+00 
33500 5.3676882098e+00 2.1760506374e-03 2.2895482627e+00 -3.9656139173e+00 2.2895482627e+00 3.9656139173e+00 
33600 5.3676882690e+00 2.1123709924e-03 2.2895007414e+00 -3.9655316081e+00 2.2895007414e+00 3.9655316081e+00 
33700 5.3676883253e+00 2.0509257836e-03 2.2894546099e+00 -3.9654517060e+00 2.2894546099e+00 3.9654517060e+00 
33800 5.3676883800e+00 1.9917151161e-03 2.2894098193e+00 -3.9653741264e+00 2.2894098193e+00 3.9653741264e+00 
33900 5.3676884341e+00 1.9347347453e-03 2.2893663210e+00 -3.9652987852e+00 2.2893663210e+00 3.9652987852e+00 
34000 5.3676884887e+00 1.8799761810e-03 2.2893240664e+00 -3.9652255979e+00 2.2893240664e+00 3.9652255979e+00 
34100 5.3676885448e+00 1.8274268022e-03 2.2892830068e+00 -3.9651544808e+00 2.2892830068e+00 3.9651544808e+00 
34200 5.3676886032e+00 1.7770699797e-03 2.2892430943e+00 -3.9650853502e+00 2.2892430943e+00 3.9650853502e+00 
34300 5.3676886648e+00 1.7288852067e-03 2.2892042809e+00 -3.9650181235e+00 2.2892042809e+00 3.9650181235e+00 
34400 5.3676887303e+00 1.6828482377e-03 2.2891665193e+00 -3.9649527185e+00 2.2891665193e+00 3.9649527185e+00 
34500 5.3676888004e+00 1.6389312332e-03 2.2891297626e+00 -3.9648890540e+00 2.2891297626e+00 3.9648890540e+00 
34600 5.3676888757e+00 1.5971029114e-03 2.2890939646e+00 -3.9648270500e+00 2.2890939646e+00 3.9648270500e+00 
34700 5.3676889567e+00 1.5573287052e-03 2.2890590797e+00 -3.9647666275e+00 2.2890590797e+00 3.9647666275e+00 
34800 5.3676890436e+00 1.5195709245e-03 2.2890250629e+00 -3.9647077088e+00 2.2890250629e+00 3.9647077088e+00 
34900 5.3676891369e+00 1.4837889226e-03 2.2889918705e+00 -3.9646502178e+00 2.2889918705e+00 3.9646502178e+00 
35000 5.3676892367e+00 1.4499392666e-03 2.2889594592e+00 -3.9645940797e+00 2.2889594592e+00 3.9645940797e+00 
35100 5.3676893431e+00 1.4179759111e-03 2.2889277868e+00 -3.9645392216e+00 2.2889277868e+00 3.9645392216e+00 
35200 5.3676894563e+00 1.3878503748e-03 2.2888968122e+00 -3.9644855720e+00 2.2888968122e+00 3.9644855720e+00 
35300 5.3676895760e+00 1.3595119184e-03 2.2888664952e+00 -3.9644330615e+00 2.2888664952e+00 3.9644330615e+00 
35400 5.3676897023e+00 1.3329077250e-03 2.2888367969e+00 -3.9643816225e+00 2.2888367969e+00 3.9643816225e+00 
35500 5.3676898349e+00 1.3079830810e-03 2.2888076794e+00 -3.9643311895e+00 2.2888076794e+00 3.9643311895e+00 
35600 5.3676899736e+00 1.2846815571e-03 2.2887791060e+00 -3.9642816989e+00 2.2887791060e+00 3.9642816989e+00 
35700 5.3676901180e+00 1.2629451905e-03 2.2887510413e+00 -3.9642330894e+00 2.2887510413e+00 3.9642330894e+00 
35800 5.3676902678e+00 1.2427146646e-03 2.2887234511e+00 -3.9641853017e+00 2.2887234511e+00 3.9641853017e+00 
35900 5.3676904226e+00 1.2239294897e-03 2.2886963025e+00 -3.9641382790e+00 2.2886963025e+00 3.9641382790e+00 
36000 5.3676905819e+00 1.2065281805e-03 2.2886695640e+00 -3.9640919665e+00 2.2886695640e+00 3.9640919665e+00 
36100 5.3676907453e+00 1.1904484326e-03 2.2886432053e+00 -3.9640463120e+00 2.2886432053e+00 3.9640463120e+00 
36200 5.3676909122e+00 1.1756272963e-03 2.2886171976e+00 -3.9640012653e+00 2.2886171976e+00 3.9640012653e+00 
36300 5.3676910821e+00 1.1620013473e-03 2.2885915134e+00 -3.9639567790e+00 2.2885915134e+00 3.9639567790e+00 
36400 5.3676912545e+00 1.1495068545e-03 2.2885661267e+00 -3.9639128078e+00 2.2885661267e+00 3.9639128078e+00 
36500 5.3676914289e+00 1.1380799441e-03 2.2885410126e+00 -3.9638693090e+00 2.2885410126e+00 3.9638693090e+00 
36600 5.3676916046e+00 1.1276567593e-03 2.2885161479e+00 -3.9638262420e+00 2.2885161479e+00 3.9638262420e+00 
36700 5.3676917811e+00 1.1181736168e-03 2.2884915106e+00 -3.9637835691e+00 2.2884915106e+00 3.9637835691e+00 
36800 5.3676919580e+00 1.1095671571e-03 2.2884670803e+00 -3.9637412545e+00 2.2884670803e+00 3.9637412545e+00 
36900 5.3676921346e+00 1.1017744913e-03 2.2884428378e+00 -3.9636992652e+00 2.2884428378e+00 3.9636992652e+00 
37000 5.3676923106e+00 1.0947333419e-03 2.2884187652e+00 -3.9636575704e+00 2.2884187652e+00 3.9636575704e+00 
37100 5.3676924854e+00 1.0883821783e-03 2.2883948463e+00 -3.9636161415e+00 2.2883948463e+00 3.9636161415e+00 
37200 5.3676926586e+00 1.0826603468e-03 2.2883710658e+00 -3.9635749526e+00 2.2883710658e+00 3.9635749526e+00 
37300 5.3676928297e+00 1.0775081948e-03 2.2883474102e+00 -3.9635339798e+00 2.2883474102e+00 3.9635339798e+00 
37400 5.3676929985e+00 1.0728671884e-03 2.2883238669e+00 -3.9634932016e+00 2.2883238669e+00 3.9634932016e+00 
37500 5.3676931644e+00 1.0686800248e-03 2.2883004247e+00 -3.9634525985e+00 2.2883004247e+00 3.9634525985e+00 
37600 5.3676933273e+00 1.0648907373e-03 2.2882770738e+00 -3.9634121536e+00 2.2882770738e+00 3.9634121536e+00 
37700 5.3676934869e+00 1.0614447941e-03 2.2882538054e+00 -3.9633718516e+00 2.2882538054e+00 3.9633718516e+00 
37800 5.3676936429e+00 1.0582891916e-03 2.2882306121e+00 -3.9633316796e+00 2.2882306121e+00 3.9633316796e+00 
37900 5.3676937951e+00 1.0553725391e-03 2.2882074875e+00 -3.9632916267e+00 2.2882074875e+00 3.9632916267e+00 
38000 5.3676939434e+00 1.0526451391e-03 2.2881844265e+00 -3.9632516837e+00 2.2881844265e+00 3.9632516837e+00 
38100 5.3676940876e+00 1.0500590587e-03 2.2881614247e+00 -3.9632118436e+00 2.2881614247e+00 3.9632118436e+00 
38200 5.3676942276e+00 1.0475681959e-03 2.2881384793e+00 -3.9631721009e+00 2.2881384793e+00 3.9631721009e+00 
38300 5.3676943635e+00 1.0451283387e-03 2.2881155881e+00 -3.9631324521e+00 2.2881155881e+00 3.9631324521e+00 
38400 5.3676944951e+00 1.0426972168e-03 2.2880927499e+00 -3.9630928953e+00 2.2880927499e+00 3.9630928953e+00 
38500 5.3676946226e+00 1.0402345480e-03 2.2880699647e+00 -3.9630534301e+00 2.2880699647e+00 3.9630534301e+00 
38600 5.3676947459e+00 1.0377020768e-03 2.2880472330e+00 -3.9630140577e+00 2.2880472330e+00 3.9630140577e+00 
38700 5.3676948651e+00 1.0350636073e-03 2.2880245564e+00 -3.9629747807e+00 2.2880245564e+00 3.9629747807e+00 
38800 5.3676949803e+00 1.0322850293e-03 2.2880019373e+00 -3.9629356033e+00 2.2880019373e+00 3.9629356033e+00 
38900 5.3676950917e+00 1.0293343380e-03 2.2879793787e+00 -3.9628965306e+00 2.2879793787e+00 3.9628965306e+00 
39000 5.3676951993e+00 1.0261816482e-03 2.2879568843e+00 -3.9628575692e+00 2.2879568843e+00 3.9628575692e+00 
39100 5.3676953034e+00 1.0227992015e-03 2.2879344587e+00 -3.9628187268e+00 2.2879344587e+00 3.9628187268e+00 
39200 5.3676954040e+00 1.0191613686e-03 2.2879121067e+00 -3.9627800120e+00 2.2879121067e+00 3.9627800120e+00 
39300 5.3676955015e+00 1.0152446449e-03 2.2878898340e+00 -3.9627414346e+00 2.2878898340e+00 3.9627414346e+00 
39400 5.3676955960e+00 1.0110276417e-03 2.2878676467e+00 -3.9627030050e+00 2.2878676467e+00 3.9627030050e+00 
39500 5.3676956876e+00 1.0064910709e-03 2.2878455513e+00 -3.9626647347e+00 2.2878455513e+00 3.9626647347e+00 
39600 5.3676957766e+00 1.0016177254e-03 2.2878235548e+00 -3.9626266357e+00 2.2878235548e+00 3.9626266357e+00 
39700 5.3676958633e+00 9.9639245398e-04 2.2878016647e+00 -3.9625887209e+00 2.2878016647e+00 3.9625887209e+00 
39800 5.3676959477e+00 9.9080213185e-04 2.2877798885e+00 -3.9625510034e+00 2.2877798885e+00 3.9625510034e+00 
39900 5.3676960302e+00 9.8483562650e-04 2.2877582343e+00 -3.9625134973e+00 2.2877582343e+00 3.9625134973e+00 
40000 5.3676961109e+00 9.7848375921e-04 2.2877367103e+00 -3.9624762166e+00 2.2877367103e+00 3.9624762166e+00 
40100 5.3676961900e+00 9.7173926259e-04 2.2877153249e+00 -3.9624391761e+00 2.2877153249e+00 3.9624391761e+00 
40200 5.3676962677e+00 9.6459673426e-04 2.2876940868e+00 -3.9624023905e+00 2.2876940868e+00 3.9624023905e+00 
40300 5.3676963442e+00 9.5705258691e-04 2.2876730045e+00 -3.9623658749e+00 2.2876730045e+00 3.9623658749e+00 
40400 5.3676964197e+00 9.4910499510e-04 2.2876520869e+00 -3.9623296446e+00 2.2876520869e+00 3.9623296446e+00 
40500 5.3676964942e+00 9.4075383887e-04 2.2876313429e+00 -3.9622937149e+00 2.2876313429e+00 3.9622937149e+00 
40600 5.3676965681e+00 9.3200064454e-04 2.2876107812e+00 -3.9622581009e+00 2.2876107812e+00 3.9622581009e+00 
40700 5.3676966413e+00 9.2284852292e-04 2.2875904106e+00 -3.9622228181e+00 2.2875904106e+00 3.9622228181e+00 
40800 5.3676967141e+00 9.1330210509e-04 2.2875702399e+00 -3.9621878813e+00 2.2875702399e+00 3.9621878813e+00 
40900 5.3676967864e+00 9.0336747616e-04 2.2875502776e+00 -3.9621533057e+00 2.2875502776e+00 3.9621533057e+00 
41000 5.3676968585e+00 8.9305210707e-04 2.2875305323e+00 -3.9621191059e+00 2.2875305323e+00 3.9621191059e+00 
41100 5.3676969304e+00 8.8236478485e-04 2.2875110124e+00 -3.9620852963e+00 2.2875110124e+00 3.9620852963e+00 
41200 5.3676970021e+00 8.7131554137e-04 2.2874917258e+00 -3.9620518910e+00 2.2874917258e+00 3.9620518910e+00 
41300 5.3676970738e+00 8.5991558110e-04 2.2874726806e+00 -3.9620189038e+00 2.2874726806e+00 3.9620189038e+00 
41400 5.3676971454e+00 8.4817720779e-04 2.2874538845e+00 -3.9619863479e+00 2.2874538845e+00 3.9619863479e+00 
41500 5.3676972170e+00 8.3611375057e-04 2.2874353447e+00 -3.9619542361e+00 2.2874353447e+00 3.9619542361e+00 
41600 5.3676972885e+00 8.2373948950e-04 2.2874170685e+00 -3.9619225808e+00 2.2874170685e+00 3.9619225808e+00 
41700 5.3676973601e+00 8.1106958096e-04 2.2873990627e+00 -3.9618913937e+00 2.2873990627e+00 3.9618913937e+00 
41800 5.3676974316e+00 7.9811998290e-04 2.2873813336e+00 -3.9618606861e+00 2.2873813336e+00 3.9618606861e+00 
41900 5.3676975031e+00 7.8490738031e-04 2.2873638875e+00 -3.9618304685e+00 2.2873638875e+00 3.9618304685e+00 
42000 5.3676975746e+00 7.7144911107e-04 2.2873467300e+00 -3.9618007509e+00 2.2873467300e+00 3.9618007509e+00 
42100 5.3676976459e+00 7.5776309226e-04 2.2873298666e+00 -3.9617715427e+00 2.2873298666e+00 3.9617715427e+00 
42200 5.3676977172e+00 7.4386774736e-04 2.2873133023e+00 -3.9617428524e+00 2.2873133023e+00 3.9617428524e+00 
42300 5.3676977882e+00 7.2978193419e-04 2.2872970416e+00 -3.9617146880e+00 2.2872970416e+00 3.9617146880e+00 
42400 5.3676978591e+00 7.1552487411e-04 2.2872810887e+00 -3.9616870568e+00 2.2872810887e+00 3.9616870568e+00 
42500 5.3676979296e+00 7.0111608228e-04 2.2872654473e+00 -3.9616599651e+00 2.2872654473e+00 3.9616599651e+00 
42600 5.3676979998e+00 6.8657529947e-04 2.2872501208e+00 -3.9616334189e+00 2.2872501208e+00 3.9616334189e+00 
42700 5.3676980697e+00 6.7192242532e-04 2.2872351121e+00 -3.9616074230e+00 2.2872351121e+00 3.9616074230e+00 
42800 5.3676981390e+00 6.5717745333e-04 2.2872204236e+00 -3.9615819817e+00 2.2872204236e+00 3.9615819817e+00 
42900 5.3676982079e+00 6.4236040757e-04 2.2872060573e+00 -3.9615570986e+00 2.2872060573e+00 3.9615570986e+00 
43000 5.3676982762e+00 6.2749128138e-04 2.2871920148e+00 -3.9615327764e+00 2.2871920148e+00 3.9615327764e+00 
43100 5.3676983438e+00 6.1258997807e-04 2.2871782973e+00 -3.9615090170e+00 2.2871782973e+00 3.9615090170e+00 
43200 5.3676984108e+00 5.9767625373e-04 2.2871649055e+00 -3.9614858217e+00 2.2871649055e+00 3.9614858217e+00 
43300 5.3676984770e+00 5.8276966231e-04 2.2871518397e+00 -3.9614631909e+00 2.2871518397e+00 3.9614631909e+00 
43400 5.3676985425e+00 5.6788950289e-04 2.2871390996e+00 -3.9614411245e+00 2.2871390996e+00 3.9614411245e+00 
43500 5.3676986071e+00 5.5305476942e-04 2.2871266848e+00 -3.9614196214e+00 2.2871266848e+00 3.9614196214e+00 
43600 5.3676986708e+00 5.3828410288e-04 2.2871145942e+00 -3.9613986799e+00 2.2871145942e+00 3.9613986799e+00 
43700 5.3676987336e+00 5.2359574586e-04 2.2871028264e+00 -3.9613782975e+00 2.2871028264e+00 3.9613782975e+00 
43800 5.3676987954e+00 5.0900749978e-04 2.2870913797e+00 -3.9613584713e+00 2.2870913797e+00 3.9613584713e+00 
43900 5.3676988563e+00 4.9453668458e-04 2.2870802519e+00 -3.9613391973e+00 2.2870802519e+00 3.9613391973e+00 
44000 5.3676989161e+00 4.8020010110e-04 2.2870694404e+00 -3.9613204712e+00 2.2870694404e+00 3.9613204712e+00 
44100 5.3676989750e+00 4.6601399607e-04 2.2870589423e+00 -3.9613022879e+00 2.2870589423e+00 3.9613022879e+00 
44200 5.3676990328e+00 4.5199402969e-04 2.2870487542e+00 -3.9612846417e+00 2.2870487542e+00 3.9612846417e+00 
44300 5.3676990895e+00 4.3815524594e-04 2.2870388726e+00 -3.9612675262e+00 2.2870388726e+00 3.9612675262e+00 
44400 5.3676991452e+00 4.2451204547e-04 2.2870292935e+00 -3.9612509348e+00 2.2870292935e+00 3.9612509348e+00 
44500 5.3676991998e+00 4.1107816120e-04 2.2870200127e+00 -3.9612348599e+00 2.2870200127e+00 3.9612348599e+00 
44600 5.3676992534e+00 3.9786663648e-04 2.2870110255e+00 -3.9612192936e+00 2.2870110255e+00 3.9612192936e+00 
44700 5.3676993060e+00 3.8488980591e-04 2.2870023271e+00 -3.9612042275e+00 2.2870023271e+00 3.9612042275e+00 
44800 5.3676993575e+00 3.7215927870e-04 2.2869939124e+00 -3.9611896528e+00 2.2869939124e+00 3.9611896528e+00 
44900 5.3676994081e+00 3.5968592464e-04 2.2869857759e+00 -3.9611755601e+00 2.2869857759e+00 3.9611755601e+00 
45000 5.3676994576e+00 3.4747986245e-04 2.2869779122e+00 -3.9611619397e+00 2.2869779122e+00 3.9611619397e+00 
45100 5.3676995062e+00 3.3555045074e-04 2.2869703153e+00 -3.9611487814e+00 2.2869703153e+00 3.9611487814e+00 
45200 5.3676995538e+00 3.2390628130e-04 2.2869629791e+00 -3.9611360749e+00 2.2869629791e+00 3.9611360749e+00 
45300 5.3676996005e+00 3.1255517469e-04 2.2869558976e+00 -3.9611238092e+00 2.2869558976e+00 3.9611238092e+00 
45400 5.3676996463e+00 3.0150417828e-04 2.2869490641e+00 -3.9611119734e+00 2.2869490641e+00 3.9611119734e+00 
45500 5.3676996913e+00 2.9075956633e-04 2.2869424723e+00 -3.9611005560e+00 2.2869424723e+00 3.9611005560e+00 
45600 5.3676997355e+00 2.8032684241e-04 2.2869361153e+00 -3.9610895454e+00 2.2869361153e+00 3.9610895454e+00 
45700 5.3676997788e+00 2.7021074377e-04 2.2869299865e+00 -3.9610789299e+00 2.2869299865e+00 3.9610789299e+00 
45800 5.3676998215e+00 2.6041524776e-04 2.2869240788e+00 -3.9610686975e+00 2.2869240788e+00 3.9610686975e+00 
45900 5.3676998634e+00 2.5094358025e-04 2.2869183852e+00 -3.9610588359e+00 2.2869183852e+00 3.9610588359e+00 
46000 5.3676999046e+00 2.4179822581e-04 2.2869128987e+00 -3.9610493330e+00 2.2869128987e+00 3.9610493330e+00 
46100 5.3676999451e+00 2.3298093967e-04 2.2869076121e+00 -3.9610401764e+00 2.2869076121e+00 3.9610401764e+00 
46200 5.3676999851e+00 2.2449276143e-04 2.2869025183e+00 -3.9610313537e+00 2.2869025183e+00 3.9610313537e+00 
46300 5.3677000244e+00 2.1633403026e-04 2.2868976101e+00 -3.9610228524e+00 2.2868976101e+00 3.9610228524e+00 
46400 5.3677000632e+00 2.0850440167e-04 2.2868928802e+00 -3.9610146601e+00 2.2868928802e+00 3.9610146601e+00 
46500 5.3677001015e+00 2.0100286568e-04 2.2868883216e+00 -3.9610067642e+00 2.2868883216e+00 3.9610067642e+00 
46600 5.3677001393e+00 1.9382776625e-04 2.2868839269e+00 -3.9609991524e+00 2.2868839269e+00 3.9609991524e+00 
46700 5.3677001765e+00 1.8697682200e-04 2.2868796891e+00 -3.9609918123e+00 2.2868796891e+00 3.9609918123e+00 
46800 5.3677002134e+00 1.8044714804e-04 2.2868756010e+00 -3.9609847316e+00 2.2868756010e+00 3.9609847316e+00 
46900 5.3677002498e+00 1.7423527880e-04 2.2868716558e+00 -3.9609778982e+00 2.2868716558e+00 3.9609778982e+00 
47000 5.3677002858e+00 1.6833719181e-04 2.2868678463e+00 -3.9609713000e+00 2.2868678463e+00 3.9609713000e+00 
47100 5.3677003214e+00 1.6274833239e-04 2.2868641658e+00 -3.9609649251e+00 2.2868641658e+00 3.9609649251e+00 
47200 5.3677003566e+00 1.5746363897e-04 2.2868606075e+00 -3.9609587619e+00 2.2868606075e+00 3.9609587619e+00 
47300 5.3677003914e+00 1.5247756920e-04 2.2868571647e+00 -3.9609527989e+00 2.2868571647e+00 3.9609527989e+00 
47400 5.3677004260e+00 1.4778412652e-04 2.2868538309e+00 -3.9609470246e+00 2.2868538309e+00 3.9609470246e+00 
47500 5.3677004601e+00 1.4337688728e-04 2.2868505997e+00 -3.9609414280e+00 2.2868505997e+00 3.9609414280e+00 
47600 5.3677004940e+00 1.3924902821e-04 2.2868474649e+00 -3.9609359984e+00 2.2868474649e+00 3.9609359984e+00 
47700 5.3677005275e+00 1.3539335420e-04 2.2868444203e+00 -3.9609307250e+00 2.2868444203e+00 3.9609307250e+00 
47800 5.3677005607e+00 1.3180232630e-04 2.2868414601e+00 -3.9609255977e+00 2.2868414601e+00 3.9609255977e+00 
47900 5.3677005936e+00 1.2846808986e-04 2.2868385783e+00 -3.9609206064e+00 2.2868385783e+00 3.9609206064e+00 
48000 5.3677006261e+00 1.2538250270e-04 2.2868357695e+00 -3.9609157413e+00 2.2868357695e+00 3.9609157413e+00 
48100 5.3677006584e+00 1.2253716324e-04 2.2868330281e+00 -3.9609109930e+00 2.2868330281e+00 3.9609109930e+00 
48200 5.3677006903e+00 1.1992343859e-04 2.2868303489e+00 -3.9609063526e+00 2.2868303489e+00 3.9609063526e+00 
48300 5.3677007219e+00 1.1753249238e-04 2.2868277268e+00 -3.9609018110e+00 2.2868277268e+00 3.9609018110e+00 
48400 5.3677007532e+00 1.1535531242e-04 2.2868251571e+00 -3.9608973601e+00 2.2868251571e+00 3.9608973601e+00 
48500 5.3677007842e+00 1.1338273792e-04 2.2868226349e+00 -3.9608929915e+00 2.2868226349e+00 3.9608929915e+00 
48600 5.3677008148e+00 1.1160548650e-04 2.2868201559e+00 -3.9608886977e+00 2.2868201559e+00 3.9608886977e+00 
48700 5.3677008452e+00 1.1001418058e-04 2.2868177157e+00 -3.9608844712e+00 2.2868177157e+00 3.9608844712e+00 
48800 5.3677008751e+00 1.0859937335e-04 2.2868153103e+00 -3.9608803049e+00 2.2868153103e+00 3.9608803049e+00 
48900 5.3677009048e+00 1.0735157424e-04 2.2868129358e+00 -3.9608761922e+00 2.2868129358e+00 3.9608761922e+00 
49000 5.3677009341e+00 1.0626127358e-04 2.2868105886e+00 -3.9608721268e+00 2.2868105886e+00 3.9608721268e+00 
49100 5.3677009630e+00 1.0531896683e-04 2.2868082653e+00 -3.9608681026e+00 2.2868082653e+00 3.9608681026e+00 
49200 5.3677009916e+00 1.0451517791e-04 2.2868059625e+00 -3.9608641141e+00 2.2868059625e+00 3.9608641141e+00 
49300 5.3677010198e+00 1.0384048188e-04 2.2868036773e+00 -3.9608601561e+00 2.2868036773e+00 3.9608601561e+00 
49400 5.3677010477e+00 1.0328552679e-04 2.2868014069e+00 -3.9608562236e+00 2.2868014069e+00 3.9608562236e+00 
49500 5.3677010751e+00 1.0284105470e-04 2.2867991486e+00 -3.9608523121e+00 2.2867991486e+00 3.9608523121e+00 
49600 5.3677011022e+00 1.0249792184e-04 2.2867969000e+00 -3.9608484174e+00 2.2867969000e+00 3.9608484174e+00 
49700 5.3677011290e+00 1.0224711789e-04 2.2867946589e+00 -3.9608445358e+00 2.2867946589e+00 3.9608445358e+00 
49800 5.3677011553e+00 1.0207978432e-04 2.2867924233e+00 -3.9608406636e+00 2.2867924233e+00 3.9608406636e+00 
49900 5.3677011813e+00 1.0198723177e-04 2.2867901914e+00 -3.9608367978e+00 2.2867901914e+00 3.9608367978e+00 
50000 5.3677012069e+00 1.0196095654e-04 2.2867879615e+00 -3.9608329354e+00 2.2867879615e+00 3.9608329354e+00 
50100 5.3677012321e+00 1.0199265601e-04 2.2867857321e+00 -3.9608290741e+00 2.2867857321e+00 3.9608290741e+00 
50200 5.3677012569e+00 1.0207424314e-04 2.2867835021e+00 -3.9608252115e+00 2.2867835021e+00 3.9608252115e+00 
50300 5.3677012814e+00 1.0219785995e-04 2.2867812703e+00 -3.9608213459e+00 2.2867812703e+00 3.9608213459e+00 
50400 5.3677013054e+00 1.0235588993e-04 2.2867790357e+00 -3.9608174756e+00 2.2867790357e+00 3.9608174756e+00 
50500 5.3677013291e+00 1.0254096955e-04 2.2867767977e+00 -3.9608135993e+00 2.2867767977e+00 3.9608135993e+00 
50600 5.3677013524e+00 1.0274599867e-04 2.2867745557e+00 -3.9608097159e+00 2.2867745557e+00 3.9608097159e+00 
50700 5.3677013753e+00 1.0296414997e-04 2.2867723092e+00 -3.9608058248e+00 2.2867723092e+00 3.9608058248e+00 
50800 5.3677013979e+00 1.0318887733e-04 2.2867700579e+00 -3.9608019255e+00 2.2867700579e+00 3.9608019255e+00 
50900 5.3677014201e+00 1.0341392331e-04 2.2867678017e+00 -3.9607980176e+00 2.2867678017e+00 3.9607980176e+00 
51000 5.3677014420e+00 1.0363332552e-04 2.2867655405e+00 -3.9607941012e+00 2.2867655405e+00 3.9607941012e+00 
51100 5.3677014635e+00 1.0384142210e-04 2.2867632746e+00 -3.9607901765e+00 2.2867632746e+00 3.9607901765e+00 
51200 5.3677014846e+00 1.0403285618e-04 2.2867610041e+00 -3.9607862439e+00 2.2867610041e+00 3.9607862439e+00 
51300 5.3677015054e+00 1.0420257943e-04 2.2867587294e+00 -3.9607823040e+00 2.2867587294e+00 3.9607823040e+00 
51400 5.3677015259e+00 1.0434585464e-04 2.2867564510e+00 -3.9607783577e+00 2.2867564510e+00 3.9607783577e+00 
51500 5.3677015461e+00 1.0445825746e-04 2.2867541695e+00 -3.9607744060e+00 2.2867541695e+00 3.9607744060e+00 
51600 5.3677015659e+00 1.0453567717e-04 2.2867518855e+00 -3.9607704500e+00 2.2867518855e+00 3.9607704500e+00 
51700 5.3677015855e+00 1.0457431663e-04 2.2867495998e+00 -3.9607664911e+00 2.2867495998e+00 3.9607664911e+00 
51800 5.3677016047e+00 1.0457069145e-04 2.2867473133e+00 -3.9607625307e+00 2.2867473133e+00 3.9607625307e+00 
51900 5.3677016237e+00 1.0452162822e-04 2.2867450269e+00 -3.9607585705e+00 2.2867450269e+00 3.9607585705e+00 
52000 5.3677016423e+00 1.0442426211e-04 2.2867427415e+00 -3.9607546121e+00 2.2867427415e+00 3.9607546121e+00 
52100 5.3677016607e+00 1.0427603360e-04 2.2867404582e+00 -3.9607506574e+00 2.2867404582e+00 3.9607506574e+00 
52200 5.3677016788e+00 1.0407468458e-04 2.2867381782e+00 -3.9607467083e+00 2.2867381782e+00 3.9607467083e+00 
52300 5.3677016967e+00 1.0381825370e-04 2.2867359026e+00 -3.9607427668e+00 2.2867359026e+00 3.9607427668e+00 
52400 5.3677017143e+00 1.0350507112e-04 2.2867336326e+00 -3.9607388350e+00 2.2867336326e+00 3.9607388350e+00 
52500 5.3677017317e+00 1.0313375263e-04 2.2867313694e+00 -3.9607349151e+00 2.2867313694e+00 3.9607349151e+00 
52600 5.3677017488e+00 1.0270319314e-04 2.2867291144e+00 -3.9607310093e+00 2.2867291144e+00 3.9607310093e+00 
52700 5.3677017657e+00 1.0221255972e-04 2.2867268687e+00 -3.9607271197e+00 2.2867268687e+00 3.9607271197e+00 
52800 5.3677017824e+00 1.0166128403e-04 2.2867246338e+00 -3.9607232487e+00 2.2867246338e+00 3.9607232487e+00 
52900 5.3677017988e+00 1.0104905432e-04 2.2867224110e+00 -3.9607193986e+00 2.2867224110e+00 3.9607193986e+00 
53000 5.3677018150e+00 1.0037580703e-04 2.2867202015e+00 -3.9607155717e+00 2.2867202015e+00 3.9607155717e+00 
53100 5.3677018311e+00 9.9641717882e-05 2.2867180068e+00 -3.9607117703e+00 2.2867180068e+00 3.9607117703e+00 
53200 5.3677018469e+00 9.8847192732e-05 2.2867158280e+00 -3.9607079966e+00 2.2867158280e+00 3.9607079966e+00 
53300 5.3677018625e+00 9.7992857993e-05 2.2867136667e+00 -3.9607042531e+00 2.2867136667e+00 3.9607042531e+00 
53400 5.3677018780e+00 9.7079550828e-05 2.2867115241e+00 -3.9607005419e+00 2.2867115241e+00 3.9607005419e+00 
53500 5.3677018932e+00 9.6108309048e-05 2.2867094014e+00 -3.9606968653e+00 2.2867094014e+00 3.9606968653e+00 
53600 5.3677019083e+00 9.5080360797e-05 2.2867072999e+00 -3.9606932255e+00 2.2867072999e+00 3.9606932255e+00 
53700 5.3677019231e+00 9.3997114079e-05 2.2867052209e+00 -3.9606896246e+00 2.2867052209e+00 3.9606896246e+00 
53800 5.3677019378e+00 9.2860146082e-05 2.2867031656e+00 -3.9606860647e+00 2.2867031656e+00 3.9606860647e+00 
53900 5.3677019524e+00 9.1671192422e-05 2.2867011352e+00 -3.9606825479e+00 2.2867011352e+00 3.9606825479e+00 
54000 5.3677019667e+00 9.0432136297e-05 2.2866991308e+00 -3.9606790761e+00 2.2866991308e+00 3.9606790761e+00 
54100 5.3677019809e+00 8.9144997566e-05 2.2866971534e+00 -3.9606756512e+00 2.2866971534e+00 3.9606756512e+00 
54200 5.3677019949e+00 8.7811921823e-05 2.2866952042e+00 -3.9606722751e+00 2.2866952042e+00 3.9606722751e+00 
54300 5.3677020088e+00 8.6435169499e-05 2.2866932841e+00 -3.9606689495e+00 2.2866932841e+00 3.9606689495e+00 
54400 5.3677020224e+00 8.5017104951e-05 2.2866913942e+00 -3.9606656759e+00 2.2866913942e+00 3.9606656759e+00 
54500 5.3677020359e+00 8.3560185670e-05 2.2866895352e+00 -3.9606624561e+00 2.2866895352e+00 3.9606624561e+00 
54600 5.3677020493e+00 8.2066951559e-05 2.2866877081e+00 -3.9606592915e+00 2.2866877081e+00 3.9606592915e+00 
54700 5.3677020625e+00 8.0540014334e-05 2.2866859137e+00 -3.9606561834e+00 2.2866859137e+00 3.9606561834e+00 
54800 5.3677020755e+00 7.8982047073e-05 2.2866841526e+00 -3.9606531332e+00 2.2866841526e+00 3.9606531332e+00 
54900 5.3677020884e+00 7.7395773942e-05 2.2866824256e+00 -3.9606501419e+00 2.2866824256e+00 3.9606501419e+00 
55000 5.3677021011e+00 7.5783960105e-05 2.2866807333e+00 -3.9606472108e+00 2.2866807333e+00 3.9606472108e+00 
55100 5.3677021136e+00 7.4149401859e-05 2.2866790762e+00 -3.9606443406e+00 2.2866790762e+00 3.9606443406e+00 
55200 5.3677021260e+00 7.2494916995e-05 2.2866774549e+00 -3.9606415324e+00 2.2866774549e+00 3.9606415324e+00 
55300 5.3677021382e+00 7.0823335423e-05 2.2866758697e+00 -3.9606387868e+00 2.2866758697e+00 3.9606387868e+00 
55400 5.3677021503e+00 6.9137490065e-05 2.2866743211e+00 -3.9606361045e+00 2.2866743211e+00 3.9606361045e+00 
55500 5.3677021623e+00 6.8119983022e-05 2.2866743211e+00 -3.9606361045e+00 2.2866743211e+00 3.9606361045e+00 
55600 5.3677021742e+00 6.7087761425e-05 2.2866743211e+00 -3.9606361045e+00 2.2866743211e+00 3.9606361045e+00 
55700 5.3677021858e+00 6.6043442263e-05 2.2866743211e+00 -3.9606361045e+00 2.2866743211e+00 3.9606361045e+00 
55800 5.3677021974e+00 6.4989617916e-05 2.2866743211e+00 -3.9606361045e+00 2.2866743211e+00 3.9606361045e+00 
55900 5.3677022087e+00 6.3928848693e-05 2.2866743211e+00 -3.9606361045e+00 2.2866743211e+00 3.9606361045e+00 
56000 5.3677022199e+00 6.2863655732e-05 2.2866743211e+00 -3.9606361045e+00 2.2866743211e+00 3.9606361045e+00 
56100 5.3677022310e+00 6.1796514260e-05 2.2866743211e+00 -3.9606361045e+00 2.2866743211e+00 3.9606361045e+00 
56200 5.3677022419e+00 6.0729847239e-05 2.2866743211e+00 -3.9606361045e+00 2.2866743211e+00 3.9606361045e+00 
56300 5.3677022526e+00 5.9666019385e-05 2.2866743211e+00 -3.9606361045e+00 2.2866743211e+00 3.9606361045e+00 
56400 5.3677022632e+00 5.8607331576e-05 2.2866743211e+00 -3.9606361045e+00 2.2866743211e+00 3.9606361045e+00 
56500 5.3677022736e+00 5.7556015649e-05 2.2866743211e+00 -3.9606361045e+00 2.2866743211e+00 3.9606361045e+00 
56600 5.3677022839e+00 5.6514229584e-05 2.2866743211e+00 -3.9606361045e+00 2.2866743211e+00 3.9606361045e+00 
56700 5.3677022940e+00 5.5484053082e-05 2.2866743211e+00 -3.9606361045e+00 2.2866743211e+00 3.9606361045e+00 
56800 5.3677023040e+00 5.4467483538e-05 2.2866743211e+00 -3.9606361045e+00 2.2866743211e+00 3.9606361045e+00 
56900 5.3677023138e+00 5.3466432388e-05 2.2866743211e+00 -3.9606361045e+00 2.2866743211e+00 3.9606361045e+00 
57000 5.3677023235e+00 5.2482721854e-05 2.2866743211e+00 -3.9606361045e+00 2.2866743211e+00 3.9606361045e+00 
57100 5.3677023330e+00 5.1518082076e-05 2.2866743211e+00 -3.9606361045e+00 2.2866743211e+00 3.9606361045e+00 
57200 5.3677023425e+00 5.0574148601e-05 2.2866743211e+00 -3.9606361045e+00 2.2866743211e+00 3.9606361045e+00 
57300 5.3677023518e+00 4.9652460268e-05 2.2866743211e+00 -3.9606361045e+00 2.2866743211e+00 3.9606361045e+00 
57400 5.3677023609e+00 4.8754457435e-05 2.2866743211e+00 -3.9606361045e+00 2.2866743211e+00 3.9606361045e+00 
57500 5.3677023699e+00 4.7881480581e-05 2.2866743211e+00 -3.9606361045e+00 2.2866743211e+00 3.9606361045e+00 
57600 5.3677023788e+00 4.7034769247e-05 2.2866743211e+00 -3.9606361045e+00 2.2866743211e+00 3.9606361045e+00 
57700 5.3677023876e+00 4.6215461320e-05 2.2866743211e+00 -3.9606361045e+00 2.2866743211e+00 3.9606361045e+00 
57800 5.3677023962e+00 4.5424592648e-05 2.2866743211e+00 -3.9606361045e+00 2.2866743211e+00 3.9606361045e+00 
57900 5.3677024048e+00 4.4663096973e-05 2.2866743211e+00 -3.9606361045e+00 2.2866743211e+00 3.9606361045e+00 
58000 5.3677024132e+00 4.3931806177e-05 2.2866743211e+00 -3.9606361045e+00 2.2866743211e+00 3.9606361045e+00 
58100 5.3677024214e+00 4.3231450817e-05 2.2866743211e+00 -3.9606361045e+00 2.2866743211e+00 3.9606361045e+00 
58200 5.3677024296e+00 4.2562660959e-05 2.2866743211e+00 -3.9606361045e+00 2.2866743211e+00 3.9606361045e+00 
58300 5.3677024377e+00 4.1925967275e-05 2.2866743211e+00 -3.9606361045e+00 2.2866743211e+00 3.9606361045e+00 
58400 5.3677024456e+00 4.1321802401e-05 2.2866743211e+00 -3.9606361045e+00 2.2866743211e+00 3.9606361045e+00 
58500 5.3677024535e+00 4.0750502556e-05 2.2866743211e+00 -3.9606361045e+00 2.2866743211e+00 3.9606361045e+00 
58600 5.3677024612e+00 4.0212309372e-05 2.2866743211e+00 -3.9606361045e+00 2.2866743211e+00 3.9606361045e+00 
58700 5.3677024689e+00 3.9707371975e-05 2.2866743211e+00 -3.9606361045e+00 2.2866743211e+00 3.9606361045e+00 
58800 5.3677024764e+00 3.9235749247e-05 2.2866743211e+00 -3.9606361045e+00 2.2866743211e+00 3.9606361045e+00 
58900 5.3677024839e+00 3.8797412301e-05 2.2866743211e+00 -3.9606361045e+00 2.2866743211e+00 3.9606361045e+00 
59000 5.3677024912e+00 3.8392247118e-05 2.2866743211e+00 -3.9606361045e+00 2.2866743211e+00 3.9606361045e+00 
59100 5.3677024985e+00 3.8020057368e-05 2.2866743211e+00 -3.9606361045e+00 2.2866743211e+00 3.9606361045e+00 
59200 5.3677025056e+00 3.7680567374e-05 2.2866743211e+00 -3.9606361045e+00 2.2866743211e+00 3.9606361045e+00 
59300 5.3677025127e+00 3.7373425218e-05 2.2866743211e+00 -3.9606361045e+00 2.2866743211e+00 3.9606361045e+00 
59400 5.3677025196e+00 3.7098205962e-05 2.2866743211e+00 -3.9606361045e+00 2.2866743211e+00 3.9606361045e+00 
59500 5.3677025265e+00 3.6854414997e-05 2.2866743211e+00 -3.9606361045e+00 2.2866743211e+00 3.9606361045e+00 
59600 5.3677025333e+00 3.6641491477e-05 2.2866743211e+00 -3.9606361045e+00 2.2866743211e+00 3.9606361045e+00 
59700 5.3677025400e+00 3.6458811832e-05 2.2866743211e+00 -3.9606361045e+00 2.2866743211e+00 3.9606361045e+00 
59800 5.3677025467e+00 3.6305693379e-05 2.2866743211e+00 -3.9606361045e+00 2.2866743211e+00 3.9606361045e+00 
59900 5.3677025532e+00 3.6181397950e-05 2.2866743211e+00 -3.9606361045e+00 2.2866743211e+00 3.9606361045e+00 
60000 5.3677025596e+00 3.6085135606e-05 2.2866743211e+00 -3.9606361045e+00 2.2866743211e+00 3.9606361045e+00 
60100 5.3677025660e+00 3.6016068359e-05 2.2866743211e+00 -3.9606361045e+00 2.2866743211e+00 3.9606361045e+00 
60200 5.3677025723e+00 3.5973313925e-05 2.2866743211e+00 -3.9606361045e+00 2.2866743211e+00 3.9606361045e+00 
60300 5.3677025785e+00 3.5955949477e-05 2.2866743211e+00 -3.9606361045e+00 2.2866743211e+00 3.9606361045e+00 
60400 5.3677025847e+00 3.5963015415e-05 2.2866743211e+00 -3.9606361045e+00 2.2866743211e+00 3.9606361045e+00 
60500 5.3677025907e+00 3.5993519106e-05 2.2866743211e+00 -3.9606361045e+00 2.2866743211e+00 3.9606361045e+00 
60600 5.3677025967e+00 3.6046438611e-05 2.2866743211e+00 -3.9606361045e+00 2.2866743211e+00 3.9606361045e+00 
60700 5.3677026026e+00 3.6120726369e-05 2.2866743211e+00 -3.9606361045e+00 2.2866743211e+00 3.9606361045e+00 
60800 5.3677026084e+00 3.6215312847e-05 2.2866743211e+00 -3.9606361045e+00 2.2866743211e+00 3.9606361045e+00 
60900 5.3677026142e+00 3.6329110143e-05 2.2866743211e+00 -3.9606361045e+00 2.2866743211e+00 3.9606361045e+00 
61000 5.3677026198e+00 3.6461015516e-05 2.2866743211e+00 -3.9606361045e+00 2.2866743211e+00 3.9606361045e+00 
61100 5.3677026254e+00 3.6609914851e-05 2.2866743211e+00 -3.9606361045e+00 2.2866743211e+00 3.9606361045e+00 
61200 5.3677026310e+00 3.6774686052e-05 2.2866743211e+00 -3.9606361045e+00 2.2866743211e+00 3.9606361045e+00 
61300 5.3677026364e+00 3.6954202353e-05 2.2866743211e+00 -3.9606361045e+00 2.2866743211e+00 3.9606361045e+00 
61400 5.3677026418e+00 3.7147335526e-05 2.2866743211e+00 -3.9606361045e+00 2.2866743211e+00 3.9606361045e+00 
61500 5.3677026471e+00 3.7352959005e-05 2.2866743211e+00 -3.9606361045e+00 2.2866743211e+00 3.9606361045e+00 
61600 5.3677026524e+00 3.7569950902e-05 2.2866743211e+00 -3.9606361045e+00 2.2866743211e+00 3.9606361045e+00 
61700 5.3677026575e+00 3.7797196921e-05 2.2866743211e+00 -3.9606361045e+00 2.2866743211e+00 3.9606361045e+00 
61800 5.3677026627e+00 3.8033593140e-05 2.2866743211e+00 -3.9606361045e+00 2.2866743211e+00 3.9606361045e+00 
61900 5.3677026677e+00 3.8278048712e-05 2.2866743211e+00 -3.9606361045e+00 2.2866743211e+00 3.9606361045e+00 
62000 5.3677026727e+00 3.8529488396e-05 2.2866743211e+00 -3.9606361045e+00 2.2866743211e+00 3.9606361045e+00 
62100 5.3677026776e+00 3.8786855012e-05 2.2866743211e+00 -3.9606361045e+00 2.2866743211e+00 3.9606361045e+00 
62200 5.3677026824e+00 3.9049111739e-05 2.2866743211e+00 -3.9606361045e+00 2.2866743211e+00 3.9606361045e+00 
62300 5.3677026872e+00 3.9315244292e-05 2.2866743211e+00 -3.9606361045e+00 2.2866743211e+00 3.9606361045e+00 
62400 5.3677026919e+00 3.9584262964e-05 2.2866743211e+00 -3.9606361045e+00 2.2866743211e+00 3.9606361045e+00 
62500 5.3677026966e+00 3.9855204540e-05 2.2866743211e+00 -3.9606361045e+00 2.2866743211e+00 3.9606361045e+00 
62600 5.3677027012e+00 4.0127134077e-05 2.2866743211e+00 -3.9606361045e+00 2.2866743211e+00 3.9606361045e+00 
62700 5.3677027057e+00 4.0399146535e-05 2.2866743211e+00 -3.9606361045e+00 2.2866743211e+00 3.9606361045e+00 
62800 5.3677027102e+00 4.0670368297e-05 2.2866743211e+00 -3.9606361045e+00 2.2866743211e+00 3.9606361045e+00 
62900 5.3677027146e+00 4.0939958530e-05 2.2866743211e+00 -3.9606361045e+00 2.2866743211e+00 3.9606361045e+00 
63000 5.3677027189e+00 4.1207110420e-05 2.2866743211e+00 -3.9606361045e+00 2.2866743211e+00 3.9606361045e+00 
63100 5.3677027232e+00 4.1471052279e-05 2.2866743211e+00 -3.9606361045e+00 2.2866743211e+00 3.9606361045e+00 
63200 5.3677027275e+00 4.1731048514e-05 2.2866743211e+00 -3.9606361045e+00 2.2866743211e+00 3.9606361045e+00 
63300 5.3677027316e+00 4.1986400463e-05 2.2866743211e+00 -3.9606361045e+00 2.2866743211e+00 3.9606361045e+00 
63400 5.3677027358e+00 4.2236447100e-05 2.2866743211e+00 -3.9606361045e+00 2.2866743211e+00 3.9606361045e+00 
63500 5.3677027398e+00 4.2480565617e-05 2.2866743211e+00 -3.9606361045e+00 2.2866743211e+00 3.9606361045e+00 
63600 5.3677027438e+00 4.2718171887e-05 2.2866743211e+00 -3.9606361045e+00 2.2866743211e+00 3.9606361045e+00 
63700 5.3677027478e+00 4.2948720792e-05 2.2866743211e+00 -3.9606361045e+00 2.2866743211e+00 3.9606361045e+00 
63800 5.3677027517e+00 4.3171706436e-05 2.2866743211e+00 -3.9606361045e+00 2.2866743211e+00 3.9606361045e+00 
63900 5.3677027556e+00 4.3386662253e-05 2.2866743211e+00 -3.9606361045e+00 2.2866743211e+00 3.9606361045e+00 
64000 5.3677027594e+00 4.3593160990e-05 2.2866743211e+00 -3.9606361045e+00 2.2866743211e+00 3.9606361045e+00 
64100 5.3677027631e+00 4.3790814573e-05 2.2866743211e+00 -3.9606361045e+00 2.2866743211e+00 3.9606361045e+00 
64200 5.3677027669e+00 4.3979273906e-05 2.2866743211e+00 -3.9606361045e+00 2.2866743211e+00 3.9606361045e+00 
64300 5.3677027705e+00 4.4158228521e-05 2.2866743211e+00 -3.9606361045e+00 2.2866743211e+00 3.9606361045e+00 
64400 5.3677027741e+00 4.4327406171e-05 2.2866743211e+00 -3.9606361045e+00 2.2866743211e+00 3.9606361045e+00 
64500 5.3677027777e+00 4.4486572299e-05 2.2866743211e+00 -3.9606361045e+00 2.2866743211e+00 3.9606361045e+00 
64600 5.3677027812e+00 4.4635529446e-05 2.2866743211e+00 -3.9606361045e+00 2.2866743211e+00 3.9606361045e+00 
64700 5.3677027847e+00 4.4774116559e-05 2.2866743211e+00 -3.9606361045e+00 2.2866743211e+00 3.9606361045e+00 
64800 5.3677027881e+00 4.4902208226e-05 2.2866743211e+00 -3.9606361045e+00 2.2866743211e+00 3.9606361045e+00 
64900 5.3677027915e+00 4.5019713834e-05 2.2866743211e+00 -3.9606361045e+00 2.2866743211e+00 3.9606361045e+00 
65000 5.3677027948e+00 4.5126576664e-05 2.2866743211e+00 -3.9606361045e+00 2.2866743211e+00 3.9606361045e+00 
65100 5.3677027981e+00 4.5222772913e-05 2.2866743211e+00 -3.9606361045e+00 2.2866743211e+00 3.9606361045e+00 
65200 5.3677028014e+00 4.5308310668e-05 2.2866743211e+00 -3.9606361045e+00 2.2866743211e+00 3.9606361045e+00 
65300 5.3677028046e+00 4.5383228813e-05 2.2866743211e+00 -3.9606361045e+00 2.2866743211e+00 3.9606361045e+00 
65400 5.3677028078e+00 4.5447595886e-05 2.2866743211e+00 -3.9606361045e+00 2.2866743211e+00 3.9606361045e+00 
65500 5.3677028109e+00 4.5501508907e-05 2.2866743211e+00 -3.9606361045e+00 2.2866743211e+00 3.9606361045e+00 
65600 5.3677028140e+00 4.5545092148e-05 2.2866743211e+00 -3.9606361045e+00 2.2866743211e+00 3.9606361045e+00 
65700 5.3677028170e+00 4.5578495878e-05 2.2866743211e+00 -3.9606361045e+00 2.2866743211e+00 3.9606361045e+00 
65800 5.3677028201e+00 4.5601895070e-05 2.2866743211e+00 -3.9606361045e+00 2.2866743211e+00 3.9606361045e+00 
65900 5.3677028230e+00 4.5615488081e-05 2.2866743211e+00 -3.9606361045e+00 2.2866743211e+00 3.9606361045e+00 
66000 5.3677028260e+00 4.5619495322e-05 2.2866743211e+00 -3.9606361045e+00 2.2866743211e+00 3.9606361045e+00 
66100 5.3677028289e+00 4.5614157896e-05 2.2866743211e+00 -3.9606361045e+00 2.2866743211e+00 3.9606361045e+00 
66200 5.3677028317e+00 4.5599736236e-05 2.2866743211e+00 -3.9606361045e+00 2.2866743211e+00 3.9606361045e+00 
66300 5.3677028345e+00 4.5576508716e-05 2.2866743211e+00 -3.9606361045e+00 2.2866743211e+00 3.9606361045e+00 
66400 5.3677028373e+00 4.5544770283e-05 2.2866743211e+00 -3.9606361045e+00 2.2866743211e+00 3.9606361045e+00 
66500 5.3677028401e+00 4.5504831070e-05 2.2866743211e+00 -3.9606361045e+00 2.2866743211e+00 3.9606361045e+00 
66600 5.3677028428e+00 4.5457015003e-05 2.2866743211e+00 -3.9606361045e+00 2.2866743211e+00 3.9606361045e+00 
66700 5.3677028455e+00 4.5401658448e-05 2.2866743211e+00 -3.9606361045e+00 2.2866743211e+00 3.9606361045e+00 
66800 5.3677028481e+00 4.5339108841e-05 2.2866743211e+00 -3.9606361045e+00 2.2866743211e+00 3.9606361045e+00 
66900 5.3677028508e+00 4.5269723338e-05 2.2866743211e+00 -3.9606361045e+00 2.2866743211e+00 3.9606361045e+00 
67000 5.3677028533e+00 4.5193867485e-05 2.2866743211e+00 -3.9606361045e+00 2.2866743211e+00 3.9606361045e+00 
67100 5.3677028559e+00 4.5111913913e-05 2.2866743211e+00 -3.9606361045e+00 2.2866743211e+00 3.9606361045e+00 
67200 5.3677028584e+00 4.5024241048e-05 2.2866743211e+00 -3.9606361045e+00 2.2866743211e+00 3.9606361045e+00 
67300 5.3677028609e+00 4.4931231846e-05 2.2866743211e+00 -3.9606361045e+00 2.2866743211e+00 3.9606361045e+00 
67400 5.3677028633e+00 4.4833272569e-05 2.2866743211e+00 -3.9606361045e+00 2.2866743211e+00 3.9606361045e+00 
67500 5.3677028658e+00 4.4730751586e-05 2.2866743211e+00 -3.9606361045e+00 2.2866743211e+00 3.9606361045e+00 
67600 5.3677028681e+00 4.4624058196e-05 2.2866743211e+00 -3.9606361045e+00 2.2866743211e+00 3.9606361045e+00 
67700 5.3677028705e+00 4.4513581512e-05 2.2866743211e+00 -3.9606361045e+00 2.2866743211e+00 3.9606361045e+00 
67800 5.3677028728e+00 4.4399709357e-05 2.2866743211e+00 -3.9606361045e+00 2.2866743211e+00 3.9606361045e+00 
67900 5.3677028751e+00 4.4282827216e-05 2.2866743211e+00 -3.9606361045e+00 2.2866743211e+00 3.9606361045e+00 
68000 5.3677028774e+00 4.4163317222e-05 2.2866743211e+00 -3.9606361045e+00 2.2866743211e+00 3.9606361045e+00 
68100 5.3677028796e+00 4.4041557196e-05 2.2866743211e+00 -3.9606361045e+00 2.2866743211e+00 3.9606361045e+00 
68200 5.3677028819e+00 4.3917919711e-05 2.2866743211e+00 -3.9606361045e+00 2.2866743211e+00 3.9606361045e+00 
68300 5.3677028840e+00 4.3792771216e-05 2.2866743211e+00 -3.9606361045e+00 2.2866743211e+00 3.9606361045e+00 
68400 5.3677028862e+00 4.3666471208e-05 2.2866743211e+00 -3.9606361045e+00 2.2866743211e+00 3.9606361045e+00 
68500 5.3677028883e+00 4.3539371439e-05 2.2866743211e+00 -3.9606361045e+00 2.2866743211e+00 3.9606361045e+00 
68600 5.3677028904e+00 4.3411815178e-05 2.2866743211e+00 -3.9606361045e+00 2.2866743211e+00 3.9606361045e+00 
68700 5.3677028925e+00 4.3284136525e-05 2.2866743211e+00 -3.9606361045e+00 2.2866743211e+00 3.9606361045e+00 
68800 5.3677028945e+00 4.3156659763e-05 2.2866743211e+00 -3.9606361045e+00 2.2866743211e+00 3.9606361045e+00 
68900 5.3677028966e+00 4.3029698769e-05 2.2866743211e+00 -3.9606361045e+00 2.2866743211e+00 3.9606361045e+00 
69000 5.3677028986e+00 4.2903556468e-05 2.2866743211e+00 -3.9606361045e+00 2.2866743211e+00 3.9606361045e+00 
69100 5.3677029005e+00 4.2778524334e-05 2.2866743211e+00 -3.9606361045e+00 2.2866743211e+00 3.9606361045e+00 
69200 5.3677029025e+00 4.2654881945e-05 2.2866743211e+00 -3.9606361045e+00 2.2866743211e+00 3.9606361045e+00 
69300 5.3677029044e+00 4.2532896577e-05 2.2866743211e+00 -3.9606361045e+00 2.2866743211e+00 3.9606361045e+00 
69400 5.3677029063e+00 4.2412822869e-05 2.2866743211e+00 -3.9606361045e+00 2.2866743211e+00 3.9606361045e+00 
69500 5.3677029082e+00 4.2294902492e-05 2.2866743211e+00 -3.9606361045e+00 2.2866743211e+00 3.9606361045e+00 
69600 5.3677029100e+00 4.2179363912e-05 2.2866743211e+00 -3.9606361045e+00 2.2866743211e+00 3.9606361045e+00 
69700 5.3677029118e+00 4.2066422166e-05 2.2866743211e+00 -3.9606361045e+00 2.2866743211e+00 3.9606361045e+00 
69800 5.3677029136e+00 4.1956278694e-05 2.2866743211e+00 -3.9606361045e+00 2.2866743211e+00 3.9606361045e+00 
69900 5.3677029154e+00 4.1849121214e-05 2.2866743211e+00 -3.9606361045e+00 2.2866743211e+00 3.9606361045e+00 
70000 5.3677029172e+00 4.1745123643e-05 2.2866743211e+00 -3.9606361045e+00 2.2866743211e+00 3.9606361045e+00 
70100 5.3677029189e+00 4.1644446049e-05 2.2866743211e+00 -3.9606361045e+00 2.2866743211e+00 3.9606361045e+00 
70200 5.3677029206e+00 4.1547234656e-05 2.2866743211e+00 -3.9606361045e+00 2.2866743211e+00 3.9606361045e+00 
70300 5.3677029223e+00 4.1453621878e-05 2.2866743211e+00 -3.9606361045e+00 2.2866743211e+00 3.9606361045e+00 
70400 5.3677029239e+00 4.1363726391e-05 2.2866743211e+00 -3.9606361045e+00 2.2866743211e+00 3.9606361045e+00 
70500 5.3677029256e+00 4.1277653249e-05 2.2866743211e+00 -3.9606361045e+00 2.2866743211e+00 3.9606361045e+00 
70600 5.3677029272e+00 4.1195494027e-05 2.2866743211e+00 -3.9606361045e+00 2.2866743211e+00 3.9606361045e+00 
70700 5.3677029288e+00 4.1117326996e-05 2.2866743211e+00 -3.9606361045e+00 2.2866743211e+00 3.9606361045e+00 
70800 5.3677029304e+00 4.1043217340e-05 2.2866743211e+00 -3.9606361045e+00 2.2866743211e+00 3.9606361045e+00 
70900 5.3677029320e+00 4.0973217385e-05 2.2866743211e+00 -3.9606361045e+00 2.2866743211e+00 3.9606361045e+00 
71000 5.3677029335e+00 4.0907366874e-05 2.2866743211e+00 -3.9606361045e+00 2.2866743211e+00 3.9606361045e+00 
71100 5.3677029350e+00 4.0845693258e-05 2.2866743211e+00 -3.9606361045e+00 2.2866743211e+00 3.9606361045e+00 
71200 5.3677029365e+00 4.0788212009e-05 2.2866743211e+00 -3.9606361045e+00 2.2866743211e+00 3.9606361045e+00 
71300 5.3677029380e+00 4.0734926972e-05 2.2866743211e+00 -3.9606361045e+00 2.2866743211e+00 3.9606361045e+00 
71400 5.3677029395e+00 4.0685830717e-05 2.2866743211e+00 -3.9606361045e+00 2.2866743211e+00 3.9606361045e+00 
71500 5.3677029409e+00 4.0640904923e-05 2.2866743211e+00 -3.9606361045e+00 2.2866743211e+00 3.9606361045e+00 
71600 5.3677029424e+00 4.0600120785e-05 2.2866743211e+00 -3.9606361045e+00 2.2866743211e+00 3.9606361045e+00 
71700 5.3677029438e+00 4.0563439425e-05 2.2866743211e+00 -3.9606361045e+00 2.2866743211e+00 3.9606361045e+00 
71800 5.3677029452e+00 4.0530812317e-05 2.2866743211e+00 -3.9606361045e+00 2.2866743211e+00 3.9606361045e+00 
71900 5.3677029465e+00 4.0502181736e-05 2.2866743211e+00 -3.9606361045e+00 2.2866743211e+00 3.9606361045e+00 
72000 5.3677029479e+00 4.0477481218e-05 2.2866743211e+00 -3.9606361045e+00 2.2866743211e+00 3.9606361045e+00 
72100 5.3677029492e+00 4.0456636008e-05 2.2866743211e+00 -3.9606361045e+00 2.2866743211e+00 3.9606361045e+00 
72200 5.3677029506e+00 4.0439563548e-05 2.2866743211e+00 -3.9606361045e+00 2.2866743211e+00 3.9606361045e+00 
72300 5.3677029519e+00 4.0426173942e-05 2.2866743211e+00 -3.9606361045e+00 2.2866743211e+00 3.9606361045e+00 
72400 5.3677029532e+00 4.0416370454e-05 2.2866743211e+00 -3.9606361045e+00 2.2866743211e+00 3.9606361045e+00 
72500 5.3677029544e+00 4.0410049971e-05 2.2866743211e+00 -3.9606361045e+00 2.2866743211e+00 3.9606361045e+00 
72600 5.3677029557e+00 4.0407103515e-05 2.2866743211e+00 -3.9606361045e+00 2.2866743211e+00 3.9606361045e+00 
72700 5.3677029569e+00 4.0407416715e-05 2.2866743211e+00 -3.9606361045e+00 2.2866743211e+00 3.9606361045e+00 
72800 5.3677029582e+00 4.0410870301e-05 2.2866743211e+00 -3.9606361045e+00 2.2866743211e+00 3.9606361045e+00 
72900 5.3677029594e+00 4.0417340585e-05 2.2866743211e+00 -3.9606361045e+00 2.2866743211e+00 3.9606361045e+00 
73000 5.3677029606e+00 4.0426699948e-05 2.2866743211e+00 -3.9606361045e+00 2.2866743211e+00 3.9606361045e+00 
73100 5.3677029617e+00 4.0438817305e-05 2.2866743211e+00 -3.9606361045e+00 2.2866743211e+00 3.9606361045e+00 
73200 5.3677029629e+00 4.0453558595e-05 2.2866743211e+00 -3.9606361045e+00 2.2866743211e+00 3.9606361045e+00 
73300 5.3677029641e+00 4.0470787216e-05 2.2866743211e+00 -3.9606361045e+00 2.2866743211e+00 3.9606361045e+00 
73400 5.3677029652e+00 4.0490364512e-05 2.2866743211e+00 -3.9606361045e+00 2.2866743211e+00 3.9606361045e+00 
73500 5.3677029663e+00 4.0512150189e-05 2.2866743211e+00 -3.9606361045e+00 2.2866743211e+00 3.9606361045e+00 
73600 5.3677029674e+00 4.0536002775e-05 2.2866743211e+00 -3.9606361045e+00 2.2866743211e+00 3.9606361045e+00 
73700 5.3677029685e+00 4.0561780029e-05 2.2866743211e+00 -3.9606361045e+00 2.2866743211e+00 3.9606361045e+00 
73800 5.3677029696e+00 4.0589339361e-05 2.2866743211e+00 -3.9606361045e+00 2.2866743211e+00 3.9606361045e+00 
73900 5.3677029707e+00 4.0618538230e-05 2.2866743211e+00 -3.9606361045e+00 2.2866743211e+00 3.9606361045e+00 
74000 5.3677029717e+00 4.0649234533e-05 2.2866743211e+00 -3.9606361045e+00 2.2866743211e+00 3.9606361045e+00 
74100 5.3677029728e+00 4.0681286977e-05 2.2866743211e+00 -3.9606361045e+00 2.2866743211e+00 3.9606361045e+00 
74200 5.3677029738e+00 4.0714555436e-05 2.2866743211e+00 -3.9606361045e+00 2.2866743211e+00 3.9606361045e+00 
74300 5.3677029748e+00 4.0748901298e-05 2.2866743211e+00 -3.9606361045e+00 2.2866743211e+00 3.9606361045e+00 
74400 5.3677029758e+00 4.0784187793e-05 2.2866743211e+00 -3.9606361045e+00 2.2866743211e+00 3.9606361045e+00 
74500 5.3677029768e+00 4.0820280302e-05 2.2866743211e+00 -3.9606361045e+00 2.2866743211e+00 3.9606361045e+00 
74600 5.3677029778e+00 4.0857046659e-05 2.2866743211e+00 -3.9606361045e+00 2.2866743211e+00 3.9606361045e+00 
74700 5.3677029788e+00 4.0894357422e-05 2.2866743211e+00 -3.9606361045e+00 2.2866743211e+00 3.9606361045e+00 
74800 5.3677029797e+00 4.0932086146e-05 2.2866743211e+00 -3.9606361045e+00 2.2866743211e+00 3.9606361045e+00 
74900 5.3677029807e+00 4.0970109620e-05 2.2866743211e+00 -3.9606361045e+00 2.2866743211e+00 3.9606361045e+00 
75000 5.3677029816e+00 4.1008308103e-05 2.2866743211e+00 -3.9606361045e+00 2.2866743211e+00 3.9606361045e+00 
75100 5.3677029825e+00 4.1046565530e-05 2.2866743211e+00 -3.9606361045e+00 2.2866743211e+00 3.9606361045e+00 
75200 5.3677029834e+00 4.1084769714e-05 2.2866743211e+00 -3.9606361045e+00 2.2866743211e+00 3.9606361045e+00 
75300 5.3677029843e+00 4.1122812511e-05 2.2866743211e+00 -3.9606361045e+00 2.2866743211e+00 3.9606361045e+00 
75400 5.3677029852e+00 4.1160589999e-05 2.2866743211e+00 -3.9606361045e+00 2.2866743211e+00 3.9606361045e+00 
75500 5.3677029861e+00 4.1198002602e-05 2.2866743211e+00 -3.9606361045e+00 2.2866743211e+00 3.9606361045e+00 
75600 5.3677029869e+00 4.1234955232e-05 2.2866743211e+00 -3.9606361045e+00 2.2866743211e+00 3.9606361045e+00 
75700 5.3677029878e+00 4.1271357390e-05 2.2866743211e+00 -3.9606361045e+00 2.2866743211e+00 3.9606361045e+00 
75800 5.3677029886e+00 4.1307123266e-05 2.2866743211e+00 -3.9606361045e+00 2.2866743211e+00 3.9606361045e+00 
75900 5.3677029894e+00 4.1342171809e-05 2.2866743211e+00 -3.9606361045e+00 2.2866743211e+00 3.9606361045e+00 
76000 5.3677029903e+00 4.1376426803e-05 2.2866743211e+00 -3.9606361045e+00 2.2866743211e+00 3.9606361045e+00 
76100 5.3677029911e+00 4.1409816894e-05 2.2866743211e+00 -3.9606361045e+00 2.2866743211e+00 3.9606361045e+00 
76200 5.3677029919e+00 4.1442275641e-05 2.2866743211e+00 -3.9606361045e+00 2.2866743211e+00 3.9606361045e+00 
76300 5.3677029927e+00 4.1473741522e-05 2.2866743211e+00 -3.9606361045e+00 2.2866743211e+00 3.9606361045e+00 
76400 5.3677029934e+00 4.1504157941e-05 2.2866743211e+00 -3.9606361045e+00 2.2866743211e+00 3.9606361045e+00 
76500 5.3677029942e+00 4.1533473218e-05 2.2866743211e+00 -3.9606361045e+00 2.2866743211e+00 3.9606361045e+00 
76600 5.3677029950e+00 4.1561640556e-05 2.2866743211e+00 -3.9606361045e+00 2.2866743211e+00 3.9606361045e+00 
76700 5.3677029957e+00 4.1588618022e-05 2.2866743211e+00 -3.9606361045e+00 2.2866743211e+00 3.9606361045e+00 
76800 5.3677029965e+00 4.1614368479e-05 2.2866743211e+00 -3.9606361045e+00 2.2866743211e+00 3.9606361045e+00 
76900 5.3677029972e+00 4.1638859543e-05 2.2866743211e+00 -3.9606361045e+00 2.2866743211e+00 3.9606361045e+00 
77000 5.3677029979e+00 4.1662063496e-05 2.2866743211e+00 -3.9606361045e+00 2.2866743211e+00 3.9606361045e+00 
77100 5.3677029986e+00 4.1683957215e-05 2.2866743211e+00 -3.9606361045e+00 2.2866743211e+00 3.9606361045e+00 
77200 5.3677029993e+00 4.1704522074e-05 2.2866743211e+00 -3.9606361045e+00 2.2866743211e+00 3.9606361045e+00 
77300 5.3677030000e+00 4.1723743846e-05 2.2866743211e+00 -3.9606361045e+00 2.2866743211e+00 3.9606361045e+00 
77400 5.3677030007e+00 4.1741612589e-05 2.2866743211e+00 -3.9606361045e+00 2.2866743211e+00 3.9606361045e+00 
77500 5.3677030014e+00 4.1758122537e-05 2.2866743211e+00 -3.9606361045e+00 2.2866743211e+00 3.9606361045e+00 
77600 5.3677030021e+00 4.1773271959e-05 2.2866743211e+00 -3.9606361045e+00 2.2866743211e+00 3.9606361045e+00 
77700 5.3677030027e+00 4.1787063037e-05 2.2866743211e+00 -3.9606361045e+00 2.2866743211e+00 3.9606361045e+00 
77800 5.3677030034e+00 4.1799501728e-05 2.2866743211e+00 -3.9606361045e+00 2.2866743211e+00 3.9606361045e+00 
77900 5.3677030040e+00 4.1810597610e-05 2.2866743211e+00 -3.9606361045e+00 2.2866743211e+00 3.9606361045e+00 
78000 5.3677030047e+00 4.1820363741e-05 2.2866743211e+00 -3.9606361045e+00 2.2866743211e+00 3.9606361045e+00 
78100 5.3677030053e+00 4.1828816500e-05 2.2866743211e+00 -3.9606361045e+00 2.2866743211e+00 3.9606361045e+00 
78200 5.3677030059e+00 4.1835975423e-05 2.2866743211e+00 -3.9606361045e+00 2.2866743211e+00 3.9606361045e+00 
78300 5.3677030065e+00 4.1841863054e-05 2.2866743211e+00 -3.9606361045e+00 2.2866743211e+00 3.9606361045e+00 
78400 5.3677030071e+00 4.1846504770e-05 2.2866743211e+00 -3.9606361045e+00 2.2866743211e+00 3.9606361045e+00 
78500 5.3677030077e+00 4.1849928614e-05 2.2866743211e+00 -3.9606361045e+00 2.2866743211e+00 3.9606361045e+00 
78600 5.3677030083e+00 4.1852165126e-05 2.2866743211e+00 -3.9606361045e+00 2.2866743211e+00 3.9606361045e+00 
78700 5.3677030089e+00 4.1853247181e-05 2.2866743211e+00 -3.9606361045e+00 2.2866743211e+00 3.9606361045e+00 
78800 5.3677030095e+00 4.1853209805e-05 2.2866743211e+00 -3.9606361045e+00 2.2866743211e+00 3.9606361045e+00 
78900 5.3677030101e+00 4.1852090014e-05 2.2866743211e+00 -3.9606361045e+00 2.2866743211e+00 3.9606361045e+00 
79000 5.3677030106e+00 4.1849926635e-05 2.2866743211e+00 -3.9606361045e+00 2.2866743211e+00 3.9606361045e+00 
79100 5.3677030112e+00 4.1846760145e-05 2.2866743211e+00 -3.9606361045e+00 2.2866743211e+00 3.9606361045e+00 
79200 5.3677030117e+00 4.1842632490e-05 2.2866743211e+00 -3.9606361045e+00 2.2866743211e+00 3.9606361045e+00 
79300 5.3677030123e+00 4.1837586931e-05 2.2866743211e+00 -3.9606361045e+00 2.2866743211e+00 3.9606361045e+00 
79400 5.3677030128e+00 4.1831667865e-05 2.2866743211e+00 -3.9606361045e+00 2.2866743211e+00 3.9606361045e+00 
79500 5.3677030133e+00 4.1824920673e-05 2.2866743211e+00 -3.9606361045e+00 2.2866743211e+00 3.9606361045e+00 
79600 5.3677030139e+00 4.1817391548e-05 2.2866743211e+00 -3.9606361045e+00 2.2866743211e+00 3.9606361045e+00 
79700 5.3677030144e+00 4.1809127354e-05 2.2866743211e+00 -3.9606361045e+00 2.2866743211e+00 3.9606361045e+00 
79800 5.3677030149e+00 4.1800175456e-05 2.2866743211e+00 -3.9606361045e+00 2.2866743211e+00 3.9606361045e+00 
79900 5.3677030154e+00 4.1790583578e-05 2.2866743211e+00 -3.9606361045e+00 2.2866743211e+00 3.9606361045e+00 
80000 5.3677030159e+00 4.1780399659e-05 2.2866743211e+00 -3.9606361045e+00 2.2866743211e+00 3.9606361045e+00 
80100 5.3677030164e+00 4.1769671705e-05 2.2866743211e+00 -3.9606361045e+00 2.2866743211e+00 3.9606361045e+00 
80200 5.3677030169e+00 4.1758447660e-05 2.2866743211e+00 -3.9606361045e+00 2.2866743211e+00 3.9606361045e+00 
80300 5.3677030173e+00 4.1746775264e-05 2.2866743211e+00 -3.9606361045e+00 2.2866743211e+00 3.9606361045e+00 
80400 5.3677030178e+00 4.1734701933e-05 2.2866743211e+00 -3.9606361045e+00 2.2866743211e+00 3.9606361045e+00 
80500 5.3677030183e+00 4.1722274639e-05 2.2866743211e+00 -3.9606361045e+00 2.2866743211e+00 3.9606361045e+00 
80600 5.3677030187e+00 4.1709539785e-05 2.2866743211e+00 -3.9606361045e+00 2.2866743211e+00 3.9606361045e+00 
80700 5.3677030192e+00 4.1696543102e-05 2.2866743211e+00 -3.9606361045e+00 2.2866743211e+00 3.9606361045e+00 
80800 5.3677030197e+00 4.1683329538e-05 2.2866743211e+00 -3.9606361045e+00 2.2866743211e+00 3.9606361045e+00 
80900 5.3677030201e+00 4.1669943163e-05 2.2866743211e+00 -3.9606361045e+00 2.2866743211e+00 3.9606361045e+00 
81000 5.3677030205e+00 4.1656427071e-05 2.2866743211e+00 -3.9606361045e+00 2.2866743211e+00 3.9606361045e+00 
81100 5.3677030210e+00 4.1642823297e-05 2.2866743211e+00 -3.9606361045e+00 2.2866743211e+00 3.9606361045e+00 
81200 5.3677030214e+00 4.1629172729e-05 2.2866743211e+00 -3.9606361045e+00 2.2866743211e+00 3.9606361045e+00 
81300 5.3677030218e+00 4.1615515037e-05 2.2866743211e+00 -3.9606361045e+00 2.2866743211e+00 3.9606361045e+00 
81400 5.3677030222e+00 4.1601888597e-05 2.2866743211e+00 -3.9606361045e+00 2.2866743211e+00 3.9606361045e+00 
81500 5.3677030227e+00 4.1588330439e-05 2.2866743211e+00 -3.9606361045e+00 2.2866743211e+00 3.9606361045e+00 
81600 5.3677030231e+00 4.1574876175e-05 2.2866743211e+00 -3.9606361045e+00 2.2866743211e+00 3.9606361045e+00 
81700 5.3677030235e+00 4.1561559956e-05 2.2866743211e+00 -3.9606361045e+00 2.2866743211e+00 3.9606361045e+00 
81800 5.3677030239e+00 4.1548414420e-05 2.2866743211e+00 -3.9606361045e+00 2.2866743211e+00 3.9606361045e+00 
81900 5.3677030243e+00 4.1535470653e-05 2.2866743211e+00 -3.9606361045e+00 2.2866743211e+00 3.9606361045e+00 
82000 5.3677030246e+00 4.1522758160e-05 2.2866743211e+00 -3.9606361045e+00 2.2866743211e+00 3.9606361045e+00 
82100 5.3677030250e+00 4.1510304828e-05 2.2866743211e+00 -3.9606361045e+00 2.2866743211e+00 3.9606361045e+00 
82200 5.3677030254e+00 4.1498136904e-05 2.2866743211e+00 -3.9606361045e+00 2.2866743211e+00 3.9606361045e+00 
82300 5.3677030258e+00 4.1486278980e-05 2.2866743211e+00 -3.9606361045e+00 2.2866743211e+00 3.9606361045e+00 
82400 5.3677030262e+00 4.1474753980e-05 2.2866743211e+00 -3.9606361045e+00 2.2866743211e+00 3.9606361045e+00 
82500 5.3677030265e+00 4.1463583147e-05 2.2866743211e+00 -3.9606361045e+00 2.2866743211e+00 3.9606361045e+00 
82600 5.3677030269e+00 4.1452786045e-05 2.2866743211e+00 -3.9606361045e+00 2.2866743211e+00 3.9606361045e+00 
82700 5.3677030272e+00 4.1442380558e-05 2.2866743211e+00 -3.9606361045e+00 2.2866743211e+00 3.9606361045e+00 
82800 5.3677030276e+00 4.1432382897e-05 2.2866743211e+00 -3.9606361045e+00 2.2866743211e+00 3.9606361045e+00 
82900 5.3677030279e+00 4.1422807614e-05 2.2866743211e+00 -3.9606361045e+00 2.2866743211e+00 3.9606361045e+00 
83000 5.3677030283e+00 4.1413667615e-05 2.2866743211e+00 -3.9606361045e+00 2.2866743211e+00 3.9606361045e+00 
83100 5.3677030286e+00 4.1404974175e-05 2.2866743211e+00 -3.9606361045e+00 2.2866743211e+00 3.9606361045e+00 
83200 5.3677030289e+00 4.1396736968e-05 2.2866743211e+00 -3.9606361045e+00 2.2866743211e+00 3.9606361045e+00 
83300 5.3677030293e+00 4.1388964097e-05 2.2866743211e+00 -3.9606361045e+00 2.2866743211e+00 3.9606361045e+00 
83400 5.3677030296e+00 4.1381662110e-05 2.2866743211e+00 -3.9606361045e+00 2.2866743211e+00 3.9606361045e+00 
83500 5.3677030299e+00 4.1374836047e-05 2.2866743211e+00 -3.9606361045e+00 2.2866743211e+00 3.9606361045e+00 
83600 5.3677030302e+00 4.1368489475e-05 2.2866743211e+00 -3.9606361045e+00 2.2866743211e+00 3.9606361045e+00 
83700 5.3677030306e+00 4.1362624519e-05 2.2866743211e+00 -3.9606361045e+00 2.2866743211e+00 3.9606361045e+00 
83800 5.3677030309e+00 4.1357241917e-05 2.2866743211e+00 -3.9606361045e+00 2.2866743211e+00 3.9606361045e+00 
83900 5.3677030312e+00 4.1352341057e-05 2.2866743211e+00 -3.9606361045e+00 2.2866743211e+00 3.9606361045e+00 
84000 5.3677030315e+00 4.1347920025e-05 2.2866743211e+00 -3.9606361045e+00 2.2866743211e+00 3.9606361045e+00 
84100 5.3677030318e+00 4.1343975656e-05 2.2866743211e+00 -3.9606361045e+00 2.2866743211e+00 3.9606361045e+00 
84200 5.3677030321e+00 4.1340503586e-05 2.2866743211e+00 -3.9606361045e+00 2.2866743211e+00 3.9606361045e+00 
84300 5.3677030324e+00 4.1337498300e-05 2.2866743211e+00 -3.9606361045e+00 2.2866743211e+00 3.9606361045e+00 
84400 5.3677030327e+00 4.1334953193e-05 2.2866743211e+00 -3.9606361045e+00 2.2866743211e+00 3.9606361045e+00 
84500 5.3677030329e+00 4.1332860617e-05 2.2866743211e+00 -3.9606361045e+00 2.2866743211e+00 3.9606361045e+00 
84600 5.3677030332e+00 4.1331211947e-05 2.2866743211e+00 -3.9606361045e+00 2.2866743211e+00 3.9606361045e+00 
84700 5.3677030335e+00 4.1329997632e-05 2.2866743211e+00 -3.9606361045e+00 2.2866743211e+00 3.9606361045e+00 
84800 5.3677030338e+00 4.1329207252e-05 2.2866743211e+00 -3.9606361045e+00 2.2866743211e+00 3.9606361045e+00 
84900 5.3677030341e+00 4.1328829582e-05 2.2866743211e+00 -3.9606361045e+00 2.2866743211e+00 3.9606361045e+00 
85000 5.3677030343e+00 4.1328852647e-05 2.2866743211e+00 -3.9606361045e+00 2.2866743211e+00 3.9606361045e+00 
85100 5.3677030346e+00 4.1329263784e-05 2.2866743211e+00 -3.9606361045e+00 2.2866743211e+00 3.9606361045e+00 
85200 5.3677030349e+00 4.1330049691e-05 2.2866743211e+00 -3.9606361045e+00 2.2866743211e+00 3.9606361045e+00 
85300 5.3677030351e+00 4.1331196497e-05 2.2866743211e+00 -3.9606361045e+00 2.2866743211e+00 3.9606361045e+00 
85400 5.3677030354e+00 4.1332689819e-05 2.2866743211e+00 -3.9606361045e+00 2.2866743211e+00 3.9606361045e+00 
85500 5.3677030356e+00 4.1334514814e-05 2.2866743211e+00 -3.9606361045e+00 2.2866743211e+00 3.9606361045e+00 
85600 5.3677030359e+00 4.1336656238e-05 2.2866743211e+00 -3.9606361045e+00 2.2866743211e+00 3.9606361045e+00 
85700 5.3677030361e+00 4.1339098505e-05 2.2866743211e+00 -3.9606361045e+00 2.2866743211e+00 3.9606361045e+00 
85800 5.3677030364e+00 4.1341825739e-05 2.2866743211e+00 -3.9606361045e+00 2.2866743211e+00 3.9606361045e+00 
85900 5.3677030366e+00 4.1344821830e-05 2.2866743211e+00 -3.9606361045e+00 2.2866743211e+00 3.9606361045e+00 
86000 5.3677030368e+00 4.1348070486e-05 2.2866743211e+00 -3.9606361045e+00 2.2866743211e+00 3.9606361045e+00 
86100 5.3677030371e+00 4.1351555285e-05 2.2866743211e+00 -3.9606361045e+00 2.2866743211e+00 3.9606361045e+00 
86200 5.3677030373e+00 4.1355259732e-05 2.2866743211e+00 -3.9606361045e+00 2.2866743211e+00 3.9606361045e+00 
86300 5.3677030375e+00 4.1359167289e-05 2.2866743211e+00 -3.9606361045e+00 2.2866743211e+00 3.9606361045e+00 
86400 5.3677030378e+00 4.1363261446e-05 2.2866743211e+00 -3.9606361045e+00 2.2866743211e+00 3.9606361045e+00 
86500 5.3677030380e+00 4.1367525752e-05 2.2866743211e+00 -3.9606361045e+00 2.2866743211e+00 3.9606361045e+00 
86600 5.3677030382e+00 4.1371943861e-05 2.2866743211e+00 -3.9606361045e+00 2.2866743211e+00 3.9606361045e+00 
86700 5.3677030384e+00 4.1376499581e-05 2.2866743211e+00 -3.9606361045e+00 2.2866743211e+00 3.9606361045e+00 
86800 5.3677030386e+00 4.1381176901e-05 2.2866743211e+00 -3.9606361045e+00 2.2866743211e+00 3.9606361045e+00 
86900 5.3677030389e+00 4.1385960042e-05 2.2866743211e+00 -3.9606361045e+00 2.2866743211e+00 3.9606361045e+00 
87000 5.3677030391e+00 4.1390833492e-05 2.2866743211e+00 -3.9606361045e+00 2.2866743211e+00 3.9606361045e+00 
87100 5.3677030393e+00 4.1395782033e-05 2.2866743211e+00 -3.9606361045e+00 2.2866743211e+00 3.9606361045e+00 
87200 5.3677030395e+00 4.1400790778e-05 2.2866743211e+00 -3.9606361045e+00 2.2866743211e+00 3.9606361045e+00 
87300 5.3677030397e+00 4.1405845205e-05 2.2866743211e+00 -3.9606361045e+00 2.2866743211e+00 3.9606361045e+00 
87400 5.3677030399e+00 4.1410931181e-05 2.2866743211e+00 -3.9606361045e+00 2.2866743211e+00 3.9606361045e+00 
87500 5.3677030401e+00 4.1416034986e-05 2.2866743211e+00 -3.9606361045e+00 2.2866743211e+00 3.9606361045e+00 
87600 5.3677030403e+00 4.1421143343e-05 2.2866743211e+00 -3.9606361045e+00 2.2866743211e+00 3.9606361045e+00 
87700 5.3677030405e+00 4.1426243436e-05 2.2866743211e+00 -3.9606361045e+00 2.2866743211e+00 3.9606361045e+00 
87800 5.3677030407e+00 4.1431322939e-05 2.2866743211e+00 -3.9606361045e+00 2.2866743211e+00 3.9606361045e+00 
87900 5.3677030408e+00 4.1436370017e-05 2.2866743211e+00 -3.9606361045e+00 2.2866743211e+00 3.9606361045e+00 
88000 5.3677030410e+00 4.1441373359e-05 2.2866743211e+00 -3.9606361045e+00 2.2866743211e+00 3.9606361045e+00 
88100 5.3677030412e+00 4.1446322182e-05 2.2866743211e+00 -3.9606361045e+00 2.2866743211e+00 3.9606361045e+00 
88200 5.3677030414e+00 4.1451206251e-05 2.2866743211e+00 -3.9606361045e+00 2.2866743211e+00 3.9606361045e+00 
88300 5.3677030416e+00 4.1456015876e-05 2.2866743211e+00 -3.9606361045e+00 2.2866743211e+00 3.9606361045e+00 
88400 5.3677030418e+00 4.1460741939e-05 2.2866743211e+00 -3.9606361045e+00 2.2866743211e+00 3.9606361045e+00 
88500 5.3677030419e+00 4.1465375884e-05 2.2866743211e+00 -3.9606361045e+00 2.2866743211e+00 3.9606361045e+00 
88600 5.3677030421e+00 4.1469909730e-05 2.2866743211e+00 -3.9606361045e+00 2.2866743211e+00 3.9606361045e+00 
88700 5.3677030423e+00 4.1474336070e-05 2.2866743211e+00 -3.9606361045e+00 2.2866743211e+00 3.9606361045e+00 
88800 5.3677030424e+00 4.1478648078e-05 2.2866743211e+00 -3.9606361045e+00 2.2866743211e+00 3.9606361045e+00 
88900 5.3677030426e+00 4.1482839498e-05 2.2866743211e+00 -3.9606361045e+00 2.2866743211e+00 3.9606361045e+00 
89000 5.3677030428e+00 4.1486904655e-05 2.2866743211e+00 -3.9606361045e+00 2.2866743211e+00 3.9606361045e+00 
89100 5.3677030429e+00 4.1490838441e-05 2.2866743211e+00 -3.9606361045e+00 2.2866743211e+00 3.9606361045e+00 
89200 5.3677030431e+00 4.1494636314e-05 2.2866743211e+00 -3.9606361045e+00 2.2866743211e+00 3.9606361045e+00 
89300 5.3677030433e+00 4.1498294286e-05 2.2866743211e+00 -3.9606361045e+00 2.2866743211e+00 3.9606361045e+00 
89400 5.3677030434e+00 4.1501808928e-05 2.2866743211e+00 -3.9606361045e+00 2.2866743211e+00 3.9606361045e+00 
89500 5.3677030436e+00 4.1505177347e-05 2.2866743211e+00 -3.9606361045e+00 2.2866743211e+00 3.9606361045e+00 
89600 5.3677030437e+00 4.1508397181e-05 2.2866743211e+00 -3.9606361045e+00 2.2866743211e+00 3.9606361045e+00 
89700 5.3677030439e+00 4.1511466587e-05 2.2866743211e+00 -3.9606361045e+00 2.2866743211e+00 3.9606361045e+00 
89800 5.3677030440e+00 4.1514384232e-05 2.2866743211e+00 -3.9606361045e+00 2.2866743211e+00 3.9606361045e+00 
89900 5.3677030442e+00 4.1517149274e-05 2.2866743211e+00 -3.9606361045e+00 2.2866743211e+00 3.9606361045e+00 
90000 5.3677030443e+00 4.1519761347e-05 2.2866743211e+00 -3.9606361045e+00 2.2866743211e+00 3.9606361045e+00 
90100 5.3677030445e+00 4.1522220552e-05 2.2866743211e+00 -3.9606361045e+00 2.2866743211e+00 3.9606361045e+00 
90200 5.3677030446e+00 4.1524527432e-05 2.2866743211e+00 -3.9606361045e+00 2.2866743211e+00 3.9606361045e+00 
90300 5.3677030447e+00 4.1526682965e-05 2.2866743211e+00 -3.9606361045e+00 2.2866743211e+00 3.9606361045e+00 
90400 5.3677030449e+00 4.1528688534e-05 2.2866743211e+00 -3.9606361045e+00 2.2866743211e+00 3.9606361045e+00 
90500 5.3677030450e+00 4.1530545923e-05 2.2866743211e+00 -3.9606361045e+00 2.2866743211e+00 3.9606361045e+00 
90600 5.3677030452e+00 4.1532257286e-05 2.2866743211e+00 -3.9606361045e+00 2.2866743211e+00 3.9606361045e+00 
90700 5.3677030453e+00 4.1533825133e-05 2.2866743211e+00 -3.9606361045e+00 2.2866743211e+00 3.9606361045e+00 
90800 5.3677030454e+00 4.1535252313e-05 2.2866743211e+00 -3.9606361045e+00 2.2866743211e+00 3.9606361045e+00 
90900 5.3677030456e+00 4.1536541992e-05 2.2866743211e+00 -3.9606361045e+00 2.2866743211e+00 3.9606361045e+00 
91000 5.3677030457e+00 4.1537697630e-05 2.2866743211e+00 -3.9606361045e+00 2.2866743211e+00 3.9606361045e+00 
91100 5.3677030458e+00 4.1538722965e-05 2.2866743211e+00 -3.9606361045e+00 2.2866743211e+00 3.9606361045e+00 
91200 5.3677030459e+00 4.1539621990e-05 2.2866743211e+00 -3.9606361045e+00 2.2866743211e+00 3.9606361045e+00 
91300 5.3677030461e+00 4.1540398937e-05 2.2866743211e+00 -3.9606361045e+00 2.2866743211e+00 3.9606361045e+00 
91400 5.3677030462e+00 4.1541058252e-05 2.2866743211e+00 -3.9606361045e+00 2.2866743211e+00 3.9606361045e+00 
91500 5.3677030463e+00 4.1541604574e-05 2.2866743211e+00 -3.9606361045e+00 2.2866743211e+00 3.9606361045e+00 
91600 5.3677030464e+00 4.1542042722e-05 2.2866743211e+00 -3.9606361045e+00 2.2866743211e+00 3.9606361045e+00 
91700 5.3677030466e+00 4.1542377666e-05 2.2866743211e+00 -3.9606361045e+00 2.2866743211e+00 3.9606361045e+00 
91800 5.3677030467e+00 4.1542614515e-05 2.2866743211e+00 -3.9606361045e+00 2.2866743211e+00 3.9606361045e+00 
91900 5.3677030468e+00 4.1542758493e-05 2.2866743211e+00 -3.9606361045e+00 2.2866743211e+00 3.9606361045e+00 
92000 5.3677030469e+00 4.1542814919e-05 2.2866743211e+00 -3.9606361045e+00 2.2866743211e+00 3.9606361045e+00 
92100 5.3677030470e+00 4.1542789199e-05 2.2866743211e+00 -3.9606361045e+00 2.2866743211e+00 3.9606361045e+00 
92200 5.3677030471e+00 4.1542686788e-05 2.2866743211e+00 -3.9606361045e+00 2.2866743211e+00 3.9606361045e+00 
92300 5.3677030472e+00 4.1542513192e-05 2.2866743211e+00 -3.9606361045e+00 2.2866743211e+00 3.9606361045e+00 
92400 5.3677030473e+00 4.1542273939e-05 2.2866743211e+00 -3.9606361045e+00 2.2866743211e+00 3.9606361045e+00 
92500 5.3677030475e+00 4.1541974564e-05 2.2866743211e+00 -3.9606361045e+00 2.2866743211e+00 3.9606361045e+00 
92600 5.3677030476e+00 4.1541620598e-05 2.2866743211e+00 -3.9606361045e+00 2.2866743211e+00 3.9606361045e+00 
92700 5.3677030477e+00 4.1541217544e-05 2.2866743211e+00 -3.9606361045e+00 2.2866743211e+00 3.9606361045e+00 
92800 5.3677030478e+00 4.1540770867e-05 2.2866743211e+00 -3.9606361045e+00 2.2866743211e+00 3.9606361045e+00 
92900 5.3677030479e+00 4.1540285984e-05 2.2866743211e+00 -3.9606361045e+00 2.2866743211e+00 3.9606361045e+00 
93000 5.3677030480e+00 4.1539768235e-05 2.2866743211e+00 -3.9606361045e+00 2.2866743211e+00 3.9606361045e+00 
93100 5.3677030481e+00 4.1539222888e-05 2.2866743211e+00 -3.9606361045e+00 2.2866743211e+00 3.9606361045e+00 
93200 5.3677030482e+00 4.1538655115e-05 2.2866743211e+00 -3.9606361045e+00 2.2866743211e+00 3.9606361045e+00 
93300 5.3677030483e+00 4.1538069983e-05 2.2866743211e+00 -3.9606361045e+00 2.2866743211e+00 3.9606361045e+00 
93400 5.3677030484e+00 4.1537472443e-05 2.2866743211e+00 -3.9606361045e+00 2.2866743211e+00 3.9606361045e+00 
93500 5.3677030485e+00 4.1536867319e-05 2.2866743211e+00 -3.9606361045e+00 2.2866743211e+00 3.9606361045e+00 
93600 5.3677030486e+00 4.1536259300e-05 2.2866743211e+00 -3.9606361045e+00 2.2866743211e+00 3.9606361045e+00 
93700 5.3677030487e+00 4.1535652928e-05 2.2866743211e+00 -3.9606361045e+00 2.2866743211e+00 3.9606361045e+00 
93800 5.3677030487e+00 4.1535052596e-05 2.2866743211e+00 -3.9606361045e+00 2.2866743211e+00 3.9606361045e+00 
93900 5.3677030488e+00 4.1534462530e-05 2.2866743211e+00 -3.9606361045e+00 2.2866743211e+00 3.9606361045e+00 
94000 5.3677030489e+00 4.1533886789e-05 2.2866743211e+00 -3.9606361045e+00 2.2866743211e+00 3.9606361045e+00 
94100 5.3677030490e+00 4.1533329262e-05 2.2866743211e+00 -3.9606361045e+00 2.2866743211e+00 3.9606361045e+00 
94200 5.3677030491e+00 4.1532793657e-05 2.2866743211e+00 -3.9606361045e+00 2.2866743211e+00 3.9606361045e+00 
94300 5.3677030492e+00 4.1532283494e-05 2.2866743211e+00 -3.9606361045e+00 2.2866743211e+00 3.9606361045e+00 
94400 5.3677030493e+00 4.1531802108e-05 2.2866743211e+00 -3.9606361045e+00 2.2866743211e+00 3.9606361045e+00 
94500 5.3677030494e+00 4.1531352642e-05 2.2866743211e+00 -3.9606361045e+00 2.2866743211e+00 3.9606361045e+00 
94600 5.3677030494e+00 4.1530938043e-05 2.2866743211e+00 -3.9606361045e+00 2.2866743211e+00 3.9606361045e+00 
94700 5.3677030495e+00 4.1530561061e-05 2.2866743211e+00 -3.9606361045e+00 2.2866743211e+00 3.9606361045e+00 
94800 5.3677030496e+00 4.1530224248e-05 2.2866743211e+00 -3.9606361045e+00 2.2866743211e+00 3.9606361045e+00 
94900 5.3677030497e+00 4.1529929960e-05 2.2866743211e+00 -3.9606361045e+00 2.2866743211e+00 3.9606361045e+00 
95000 5.3677030498e+00 4.1529680347e-05 2.2866743211e+00 -3.9606361045e+00 2.2866743211e+00 3.9606361045e+00 
95100 5.3677030499e+00 4.1529477367e-05 2.2866743211e+00 -3.9606361045e+00 2.2866743211e+00 3.9606361045e+00 
95200 5.3677030499e+00 4.1529322774e-05 2.2866743211e+00 -3.9606361045e+00 2.2866743211e+00 3.9606361045e+00 
95300 5.3677030500e+00 4.1529218130e-05 2.2866743211e+00 -3.9606361045e+00 2.2866743211e+00 3.9606361045e+00 
95400 5.3677030501e+00 4.1529164800e-05 2.2866743211e+00 -3.9606361045e+00 2.2866743211e+00 3.9606361045e+00 
95500 5.3677030502e+00 4.1529163956e-05 2.2866743211e+00 -3.9606361045e+00 2.2866743211e+00 3.9606361045e+00 
95600 5.3677030502e+00 4.1529216582e-05 2.2866743211e+00 -3.9606361045e+00 2.2866743211e+00 3.9606361045e+00 
95700 5.3677030503e+00 4.1529323473e-05 2.2866743211e+00 -3.9606361045e+00 2.2866743211e+00 3.9606361045e+00 
95800 5.3677030504e+00 4.1529485245e-05 2.2866743211e+00 -3.9606361045e+00 2.2866743211e+00 3.9606361045e+00 
95900 5.3677030505e+00 4.1529702334e-05 2.2866743211e+00 -3.9606361045e+00 2.2866743211e+00 3.9606361045e+00 
96000 5.3677030505e+00 4.1529974998e-05 2.2866743211e+00 -3.9606361045e+00 2.2866743211e+00 3.9606361045e+00 
96100 5.3677030506e+00 4.1530303333e-05 2.2866743211e+00 -3.9606361045e+00 2.2866743211e+00 3.9606361045e+00 
96200 5.3677030507e+00 4.1530687269e-05 2.2866743211e+00 -3.9606361045e+00 2.2866743211e+00 3.9606361045e+00 
96300 5.3677030507e+00 4.1531126574e-05 2.2866743211e+00 -3.9606361045e+00 2.2866743211e+00 3.9606361045e+00 
96400 5.3677030508e+00 4.1531620868e-05 2.2866743211e+00 -3.9606361045e+00 2.2866743211e+00 3.9606361045e+00 
96500 5.3677030509e+00 4.1532169618e-05 2.2866743211e+00 -3.9606361045e+00 2.2866743211e+00 3.9606361045e+00 
96600 5.3677030509e+00 4.1532772161e-05 2.2866743211e+00 -3.9606361045e+00 2.2866743211e+00 3.9606361045e+00 
96700 5.3677030510e+00 4.1533427689e-05 2.2866743211e+00 -3.9606361045e+00 2.2866743211e+00 3.9606361045e+00 
96800 5.3677030511e+00 4.1534135272e-05 2.2866743211e+00 -3.9606361045e+00 2.2866743211e+00 3.9606361045e+00 
96900 5.3677030511e+00 4.1534893856e-05 2.2866743211e+00 -3.9606361045e+00 2.2866743211e+00 3.9606361045e+00 
97000 5.3677030512e+00 4.1535702279e-05 2.2866743211e+00 -3.9606361045e+00 2.2866743211e+00 3.9606361045e+00 
97100 5.3677030513e+00 4.1536559267e-05 2.2866743211e+00 -3.9606361045e+00 2.2866743211e+00 3.9606361045e+00 
97200 5.3677030513e+00 4.1537463444e-05 2.2866743211e+00 -3.9606361045e+00 2.2866743211e+00 3.9606361045e+00 
97300 5.3677030514e+00 4.1538413347e-05 2.2866743211e+00 -3.9606361045e+00 2.2866743211e+00 3.9606361045e+00 
97400 5.3677030514e+00 4.1539407422e-05 2.2866743211e+00 -3.9606361045e+00 2.2866743211e+00 3.9606361045e+00 
97500 5.3677030515e+00 4.1540444037e-05 2.2866743211e+00 -3.9606361045e+00 2.2866743211e+00 3.9606361045e+00 
97600 5.3677030516e+00 4.1541521493e-05 2.2866743211e+00 -3.9606361045e+00 2.2866743211e+00 3.9606361045e+00 
97700 5.3677030516e+00 4.1542638021e-05 2.2866743211e+00 -3.9606361045e+00 2.2866743211e+00 3.9606361045e+00 
97800 5.3677030517e+00 4.1543791793e-05 2.2866743211e+00 -3.9606361045e+00 2.2866743211e+00 3.9606361045e+00 
97900 5.3677030517e+00 4.1544980938e-05 2.2866743211e+00 -3.9606361045e+00 2.2866743211e+00 3.9606361045e+00 
98000 5.3677030518e+00 4.1546203534e-05 2.2866743211e+00 -3.9606361045e+00 2.2866743211e+00 3.9606361045e+00 
98100 5.3677030518e+00 4.1547457622e-05 2.2866743211e+00 -3.9606361045e+00 2.2866743211e+00 3.9606361045e+00 
98200 5.3677030519e+00 4.1548741219e-05 2.2866743211e+00 -3.9606361045e+00 2.2866743211e+00 3.9606361045e+00 
98300 5.3677030519e+00 4.1550052312e-05 2.2866743211e+00 -3.9606361045e+00 2.2866743211e+00 3.9606361045e+00 
98400 5.3677030520e+00 4.1551388872e-05 2.2866743211e+00 -3.9606361045e+00 2.2866743211e+00 3.9606361045e+00 
98500 5.3677030521e+00 4.1552748859e-05 2.2866743211e+00 -3.9606361045e+00 2.2866743211e+00 3.9606361045e+00 
98600 5.3677030521e+00 4.1554130229e-05 2.2866743211e+00 -3.9606361045e+00 2.2866743211e+00 3.9606361045e+00 
98700 5.3677030522e+00 4.1555530935e-05 2.2866743211e+00 -3.9606361045e+00 2.2866743211e+00 3.9606361045e+00 
98800 5.3677030522e+00 4.1556948939e-05 2.2866743211e+00 -3.9606361045e+00 2.2866743211e+00 3.9606361045e+00 
98900 5.3677030523e+00 4.1558382215e-05 2.2866743211e+00 -3.9606361045e+00 2.2866743211e+00 3.9606361045e+00 
99000 5.3677030523e+00 4.1559422502e-05 2.2866743211e+00 -3.9606361045e+00 2.2866743211e+00 3.9606361045e+00 
99000 5.3677030523e+00 4.1559422502e-05 2.2866743211e+00 -3.9606361045e+00 2.2866743211e+00 3.9606361045e+00 
