# step Hamiltonian StressXX CellTensor1 CellTensor2 CellTensor3 CellTensor4 
0 5.2423248986e+00 5.0547878898e-02 1.6185780433e+00 -2.8034594071e+00 1.6185780433e+00 2.8034594071e+00 
100 5.2387203852e+00 5.0386656326e-02 1.6185780433e+00 -2.8034594071e+00 1.6185780433e+00 2.8034594071e+00 
200 5.2352724376e+00 4.8662343349e-02 1.6170217831e+00 -2.8007638853e+00 1.6170217831e+00 2.8007638853e+00 
300 5.2320584067e+00 4.7047913952e-02 1.6155173263e+00 -2.7981580896e+00 1.6155173263e+00 2.7981580896e+00 
400 5.2290559739e+00 4.5534805497e-02 1.6140614199e+00 -2.7956363858e+00 1.6140614199e+00 2.7956363858e+00 
500 5.2262451457e+00 4.4115205637e-02 1.6126510595e+00 -2.7931935699e+00 1.6126510595e+00 2.7931935699e+00 
600 5.2236080440e+00 4.2781997149e-02 1.6112834677e+00 -2.7908248315e+00 1.6112834677e+00 2.7908248315e+00 
700 5.2211287097e+00 4.1528704282e-02 1.6099560751e+00 -2.7885257200e+00 1.6099560751e+00 2.7885257200e+00 
800 5.2187929198e+00 4.0349440919e-02 1.6086665009e+00 -2.7862921120e+00 1.6086665009e+00 2.7862921120e+00 
900 5.2165880177e+00 3.9238860794e-02 1.6074125370e+00 -2.7841201829e+00 1.6074125370e+00 2.7841201829e+00 
1000 5.2145027560e+00 3.8192109974e-02 1.6061921319e+00 -2.7820063791e+00 1.6061921319e+00 2.7820063791e+00 
1100 5.2125271507e+00 3.7204781772e-02 1.6050033764e+00 -2.7799473942e+00 1.6050033764e+00 2.7799473942e+00 
1200 5.2106523477e+00 3.6272874221e-02 1.6038444909e+00 -2.7779401457e+00 1.6038444909e+00 2.7779401457e+00 
1300 5.2088705003e+00 3.5392750182e-02 1.6027138137e+00 -2.7759817553e+00 1.6027138137e+00 2.7759817553e+00 
1400 5.2071746566e+00 3.4561100149e-02 1.6016097899e+00 -2.7740695300e+00 1.6016097899e+00 2.7740695300e+00 
1500 5.2055586570e+00 3.3774907753e-02 1.6005309623e+00 -2.7722009458e+00 1.6005309623e+00 2.7722009458e+00 
1600 5.2040170419e+00 3.3031417952e-02 1.5994759626e+00 -2.7703736327e+00 1.5994759626e+00 2.7703736327e+00 
1700 5.2025449669e+00 3.2328107869e-02 1.5984435037e+00 -2.7685853615e+00 1.5984435037e+00 2.7685853615e+00 
1800 5.2011381275e+00 3.1662660194e-02 1.5974323733e+00 -2.7668340323e+00 1.5974323733e+00 2.7668340323e+00 
1900 5.1997926905e+00 3.1032939076e-02 1.5964414273e+00 -2.7651176634e+00 1.5964414273e+00 2.7651176634e+00 
2000 5.1985052335e+00 3.0436968396e-02 1.5954695850e+00 -2.7634343831e+00 1.5954695850e+00 2.7634343831e+00 
2100 5.1972726904e+00 2.9872912289e-02 1.5945158240e+00 -2.7617824206e+00 1.5945158240e+00 2.7617824206e+00 
2200 5.1960923031e+00 2.9339057816e-02 1.5935791764e+00 -2.7601600995e+00 1.5935791764e+00 2.7601600995e+00 
2300 5.1949615790e+00 2.8833799610e-02 1.5926587254e+00 -2.7585658315e+00 1.5926587254e+00 2.7585658315e+00 
2400 5.1938782537e+00 2.8355626397e-02 1.5917536016e+00 -2.7569981111e+00 1.5917536016e+00 2.7569981111e+00 
2500 5.1928402580e+00 2.7903109215e-02 1.5908629807e+00 -2.7554555105e+00 1.5908629807e+00 2.7554555105e+00 
2600 5.1918456896e+00 2.7474891220e-02 1.5899860811e+00 -2.7539366757e+00 1.5899860811e+00 2.7539366757e+00 
2700 5.1908927881e+00 2.7069678917e-02 1.5891221615e+00 -2.7524403231e+00 1.5891221615e+00 2.7524403231e+00 
2800 5.1899799140e+00 2.6686234687e-02 1.5882705196e+00 -2.7509652361e+00 1.5882705196e+00 2.7509652361e+00 
2900 5.1891055304e+00 2.6323370490e-02 1.5874304901e+00 -2.7495102624e+00 1.5874304901e+00 2.7495102624e+00 
3000 5.1882681874e+00 2.5979942606e-02 1.5866014435e+00 -2.7480743115e+00 1.5866014435e+00 2.7480743115e+00 
3100 5.1874665092e+00 2.5654847296e-02 1.5857827846e+00 -2.7466563528e+00 1.5857827846e+00 2.7466563528e+00 
3200 5.1866991831e+00 2.5347017286e-02 1.5849739518e+00 -2.7452554131e+00 1.5849739518e+00 2.7452554131e+00 
3300 5.1859649505e+00 2.5055418956e-02 1.5841744154e+00 -2.7438705756e+00 1.5841744154e+00 2.7438705756e+00 
3400 5.1852625992e+00 2.4779050144e-02 1.5833836776e+00 -2.7425009775e+00 1.5833836776e+00 2.7425009775e+00 
3500 5.1845909580e+00 2.4516938476e-02 1.5826012706e+00 -2.7411458089e+00 1.5826012706e+00 2.7411458089e+00 
3600 5.1839488911e+00 2.4268140147e-02 1.5818267566e+00 -2.7398043112e+00 1.5818267566e+00 2.7398043112e+00 
3700 5.1833352949e+00 2.4031739069e-02 1.5810597264e+00 -2.7384757759e+00 1.5810597264e+00 2.7384757759e+00 
3800 5.1827490949e+00 2.3806846330e-02 1.5802997990e+00 -2.7371595430e+00 1.5802997990e+00 2.7371595430e+00 
3900 5.1821892436e+00 2.3592599902e-02 1.5795466206e+00 -2.7358549997e+00 1.5795466206e+00 2.7358549997e+00 
4000 5.1816547187e+00 2.3388164547e-02 1.5787998639e+00 -2.7345615792e+00 1.5787998639e+00 2.7345615792e+00 
4100 5.1811445225e+00 2.3192731865e-02 1.5780592274e+00 -2.7332787592e+00 1.5780592274e+00 2.7332787592e+00 
4200 5.1806576806e+00 2.3005520461e-02 1.5773244346e+00 -2.7320060608e+00 1.5773244346e+00 2.7320060608e+00 
4300 5.1801932422e+00 2.2825776183e-02 1.5765952331e+00 -2.7307430467e+00 1.5765952331e+00 2.7307430467e+00 
4400 5.1797502794e+00 2.2652772400e-02 1.5758713939e+00 -2.7294893205e+00 1.5758713939e+00 2.7294893205e+00 
4500 5.1793278878e+00 2.2485810303e-02 1.5751527106e+00 -2.7282445244e+00 1.5751527106e+00 2.7282445244e+00 
4600 5.1789251863e+00 2.2324219197e-02 1.5744389985e+00 -2.7270083388e+00 1.5744389985e+00 2.7270083388e+00 
4700 5.1785413174e+00 2.2167356778e-02 1.5737300938e+00 -2.7257804799e+00 1.5737300938e+00 2.7257804799e+00 
4800 5.1781754478e+00 2.2014609362e-02 1.5730258529e+00 -2.7245606989e+00 1.5730258529e+00 2.7245606989e+00 
4900 5.1778267685e+00 2.1865392076e-02 1.5723261512e+00 -2.7233487800e+00 1.5723261512e+00 2.7233487800e+00 
5000 5.1774944951e+00 2.1719148982e-02 1.5716308826e+00 -2.7221445395e+00 1.5716308826e+00 2.7221445395e+00 
5100 5.1771778682e+00 2.1575353143e-02 1.5709399584e+00 -2.7209478236e+00 1.5709399584e+00 2.7209478236e+00 
5200 5.1768761535e+00 2.1433506611e-02 1.5702533064e+00 -2.7197585075e+00 1.5702533064e+00 2.7197585075e+00 
5300 5.1765886420e+00 2.1293140350e-02 1.5695708703e+00 -2.7185764934e+00 1.5695708703e+00 2.7185764934e+00 
5400 5.1763146503e+00 2.1153814076e-02 1.5688926082e+00 -2.7174017091e+00 1.5688926082e+00 2.7174017091e+00 
5500 5.1760535202e+00 2.1015116033e-02 1.5682184927e+00 -2.7162341067e+00 1.5682184927e+00 2.7162341067e+00 
5600 5.1758046193e+00 2.0876662681e-02 1.5675485089e+00 -2.7150736608e+00 1.5675485089e+00 2.7150736608e+00 
5700 5.1755673402e+00 2.0738098326e-02 1.5668826544e+00 -2.7139203670e+00 1.5668826544e+00 2.7139203670e+00 
5800 5.1753411006e+00 2.0599094672e-02 1.5662209381e+00 -2.7127742406e+00 1.5662209381e+00 2.7127742406e+00 
5900 5.1751253432e+00 2.0459350311e-02 1.5655633791e+00 -2.7116353151e+00 1.5655633791e+00 2.7116353151e+00 
6000 5.1749195351e+00 2.0318590150e-02 1.5649100064e+00 -2.7105036404e+00 1.5649100064e+00 2.7105036404e+00 
6100 5.1747231675e+00 2.0176564785e-02 1.5642608578e+00 -2.7093792819e+00 1.5642608578e+00 2.7093792819e+00 
6200 5.1745357552e+00 2.0033049813e-02 1.5636159788e+00 -2.7082623188e+00 1.5636159788e+00 2.7082623188e+00 
6300 5.1743568361e+00 1.9887845108e-02 1.5629754225e+00 -2.7071528428e+00 1.5629754225e+00 2.7071528428e+00 
6400 5.1741859708e+00 1.9740774047e-02 1.5623392482e+00 -2.7060509566e+00 1.5623392482e+00 2.7060509566e+00 
6500 5.1740227415e+00 1.9591682697e-02 1.5617075211e+00 -2.7049567730e+00 1.5617075211e+00 2.7049567730e+00 
6600 5.1738667520e+00 1.9440438978e-02 1.5610803111e+00 -2.7038704135e+00 1.5610803111e+00 2.7038704135e+00 
6700 5.1737176265e+00 1.9286931790e-02 1.5604576927e+00 -2.7027920068e+00 1.5604576927e+00 2.7027920068e+00 
6800 5.1735750091e+00 1.9131070122e-02 1.5598397439e+00 -2.7017216882e+00 1.5598397439e+00 2.7017216882e+00 
6900 5.1734385632e+00 1.8972782141e-02 1.5592265458e+00 -2.7006595978e+00 1.5592265458e+00 2.7006595978e+00 
7000 5.1733079704e+00 1.8812014274e-02 1.5586181817e+00 -2.6996058804e+00 1.5586181817e+00 2.6996058804e+00 
7100 5.1731829301e+00 1.8648730269e-02 1.5580147370e+00 -2.6985606834e+00 1.5580147370e+00 2.6985606834e+00 
7200 5.1730631587e+00 1.8482910267e-02 1.5574162980e+00 -2.6975241566e+00 1.5574162980e+00 2.6975241566e+00 
7300 5.1729483887e+00 1.8314549862e-02 1.5568229519e+00 -2.6964964511e+00 1.5568229519e+00 2.6964964511e+00 
7400 5.1728383679e+00 1.8143659167e-02 1.5562347863e+00 -2.6954777183e+00 1.5562347863e+00 2.6954777183e+00 
7500 5.1727328589e+00 1.7970261892e-02 1.5556518882e+00 -2.6944681092e+00 1.5556518882e+00 2.6944681092e+00 
7600 5.1726316381e+00 1.7794394428e-02 1.5550743441e+00 -2.6934677736e+00 1.5550743441e+00 2.6934677736e+00 
7700 5.1725344953e+00 1.7616104940e-02 1.5545022395e+00 -2.6924768594e+00 1.5545022395e+00 2.6924768594e+00 
7800 5.1724412325e+00 1.7435452485e-02 1.5539356584e+00 -2.6914955120e+00 1.5539356584e+00 2.6914955120e+00 
7900 5.1723516639e+00 1.7252506141e-02 1.5533746827e+00 -2.6905238735e+00 1.5533746827e+00 2.6905238735e+00 
8000 5.1722656144e+00 1.7067344160e-02 1.5528193924e+00 -2.6895620825e+00 1.5528193924e+00 2.6895620825e+00 
8100 5.1721829197e+00 1.6880053140e-02 1.5522698649e+00 -2.6886102731e+00 1.5522698649e+00 2.6886102731e+00 
8200 5.1721034254e+00 1.6690727224e-02 1.5517261751e+00 -2.6876685747e+00 1.5517261751e+00 2.6876685747e+00 
8300 5.1720269860e+00 1.6499467327e-02 1.5511883945e+00 -2.6867371114e+00 1.5511883945e+00 2.6867371114e+00 
8400 5.1719534651e+00 1.6306380379e-02 1.5506565918e+00 -2.6858160021e+00 1.5506565918e+00 2.6858160021e+00 
8500 5.1718827341e+00 1.6111578611e-02 1.5501308320e+00 -2.6849053594e+00 1.5501308320e+00 2.6849053594e+00 
8600 5.1718146723e+00 1.5915178856e-02 1.5496111766e+00 -2.6840052898e+00 1.5496111766e+00 2.6840052898e+00 
8700 5.1717491658e+00 1.5717301889e-02 1.5490976833e+00 -2.6831158933e+00 1.5490976833e+00 2.6831158933e+00 
8800 5.1716861076e+00 1.5518071791e-02 1.5485904059e+00 -2.6822372631e+00 1.5485904059e+00 2.6822372631e+00 
8900 5.1716253967e+00 1.5317615344e-02 1.5480893943e+00 -2.6813694856e+00 1.5480893943e+00 2.6813694856e+00 
9000 5.1715669378e+00 1.5116061459e-02 1.5475946942e+00 -2.6805126399e+00 1.5475946942e+00 2.6805126399e+00 
9100 5.1715106412e+00 1.4913540632e-02 1.5471063472e+00 -2.6796667980e+00 1.5471063472e+00 2.6796667980e+00 
9200 5.1714564219e+00 1.4710184428e-02 1.5466243904e+00 -2.6788320245e+00 1.5466243904e+00 2.6788320245e+00 
9300 5.1714041996e+00 1.4506125002e-02 1.5461488571e+00 -2.6780083765e+00 1.5461488571e+00 2.6780083765e+00 
9400 5.1713538983e+00 1.4301494639e-02 1.5456797757e+00 -2.6771959038e+00 1.5456797757e+00 2.6771959038e+00 
9500 5.1713054461e+00 1.4096425333e-02 1.5452171708e+00 -2.6763946486e+00 1.5452171708e+00 2.6763946486e+00 
9600 5.1712587744e+00 1.3891048388e-02 1.5447610624e+00 -2.6756046456e+00 1.5447610624e+00 2.6756046456e+00 
9700 5.1712138185e+00 1.3685494050e-02 1.5443114662e+00 -2.6748259221e+00 1.5443114662e+00 2.6748259221e+00 
9800 5.1711705164e+00 1.3479891165e-02 1.5438683937e+00 -2.6740584980e+00 1.5438683937e+00 2.6740584980e+00 
9900 5.1711288094e+00 1.3274366864e-02 1.5434318521e+00 -2.6733023858e+00 1.5434318521e+00 2.6733023858e+00 
10000 5.1710886413e+00 1.3069046273e-02 1.5430018444e+00 -2.6725575907e+00 1.5430018444e+00 2.6725575907e+00 
10100 5.1710499584e+00 1.2864052249e-02 1.5425783696e+00 -2.6718241108e+00 1.5425783696e+00 2.6718241108e+00 
10200 5.1710127096e+00 1.2659505137e-02 1.5421614225e+00 -2.6711019372e+00 1.5421614225e+00 2.6711019372e+00 
10300 5.1709768456e+00 1.2455522557e-02 1.5417509939e+00 -2.6703910540e+00 1.5417509939e+00 2.6703910540e+00 
10400 5.1709423194e+00 1.2252219202e-02 1.5413470707e+00 -2.6696914385e+00 1.5413470707e+00 2.6696914385e+00 
10500 5.1709090857e+00 1.2049706669e-02 1.5409496361e+00 -2.6690030617e+00 1.5409496361e+00 2.6690030617e+00 
10600 5.1708771011e+00 1.1848093304e-02 1.5405586695e+00 -2.6683258876e+00 1.5405586695e+00 2.6683258876e+00 
10700 5.1708463237e+00 1.1647484065e-02 1.5401741467e+00 -2.6676598745e+00 1.5401741467e+00 2.6676598745e+00 
10800 5.1708167131e+00 1.1447980407e-02 1.5397960398e+00 -2.6670049743e+00 1.5397960398e+00 2.6670049743e+00 
10900 5.1707882306e+00 1.1249680183e-02 1.5394243179e+00 -2.6663611330e+00 1.5394243179e+00 2.6663611330e+00 
11000 5.1707608386e+00 1.1052677566e-02 1.5390589464e+00 -2.6657282910e+00 1.5390589464e+00 2.6657282910e+00 
11100 5.1707345006e+00 1.0857062973e-02 1.5386998878e+00 -2.6651063832e+00 1.5386998878e+00 2.6651063832e+00 
11200 5.1707091818e+00 1.0662923023e-02 1.5383471014e+00 -2.6644953392e+00 1.5383471014e+00 2.6644953392e+00 
11300 5.1706848479e+00 1.0470340492e-02 1.5380005436e+00 -2.6638950836e+00 1.5380005436e+00 2.6638950836e+00 
11400 5.1706614662e+00 1.0279394293e-02 1.5376601681e+00 -2.6633055359e+00 1.5376601681e+00 2.6633055359e+00 
11500 5.1706390047e+00 1.0090159459e-02 1.5373259258e+00 -2.6627266113e+00 1.5373259258e+00 2.6627266113e+00 
11600 5.1706174324e+00 9.9027071424e-03 1.5369977650e+00 -2.6621582202e+00 1.5369977650e+00 2.6621582202e+00 
11700 5.1705967193e+00 9.7171046269e-03 1.5366756318e+00 -2.6616002691e+00 1.5366756318e+00 2.6616002691e+00 
11800 5.1705768363e+00 9.5334153424e-03 1.5363594697e+00 -2.6610526603e+00 1.5363594697e+00 2.6610526603e+00 
11900 5.1705577551e+00 9.3516988945e-03 1.5360492203e+00 -2.6605152924e+00 1.5360492203e+00 2.6605152924e+00 
12000 5.1705394481e+00 9.1720111000e-03 1.5357448228e+00 -2.6599880605e+00 1.5357448228e+00 2.6599880605e+00 
12100 5.1705218887e+00 8.9944040310e-03 1.5354462148e+00 -2.6594708563e+00 1.5354462148e+00 2.6594708563e+00 
12200 5.1705050508e+00 8.8189260649e-03 1.5351533319e+00 -2.6589635683e+00 1.5351533319e+00 2.6589635683e+00 
12300 5.1704889093e+00 8.6456219417e-03 1.5348661081e+00 -2.6584660821e+00 1.5348661081e+00 2.6584660821e+00 
12400 5.1704734397e+00 8.4745328263e-03 1.5345844758e+00 -2.6579782806e+00 1.5345844758e+00 2.6579782806e+00 
12500 5.1704586182e+00 8.3056963765e-03 1.5343083659e+00 -2.6575000443e+00 1.5343083659e+00 2.6575000443e+00 
12600 5.1704444215e+00 8.1391468155e-03 1.5340377081e+00 -2.6570312511e+00 1.5340377081e+00 2.6570312511e+00 
12700 5.1704308274e+00 7.9749150078e-03 1.5337724306e+00 -2.6565717771e+00 1.5337724306e+00 2.6565717771e+00 
12800 5.1704178138e+00 7.8130285401e-03 1.5335124609e+00 -2.6561214963e+00 1.5335124609e+00 2.6561214963e+00 
12900 5.1704053597e+00 7.6535118038e-03 1.5332577250e+00 -2.6556802808e+00 1.5332577250e+00 2.6556802808e+00 
13000 5.1703934445e+00 7.4963860815e-03 1.5330081484e+00 -2.6552480015e+00 1.5330081484e+00 2.6552480015e+00 
13100 5.1703820481e+00 7.3416696349e-03 1.5327636557e+00 -2.6548245277e+00 1.5327636557e+00 2.6548245277e+00 
13200 5.1703711511e+00 7.1893777950e-03 1.5325241707e+00 -2.6544097275e+00 1.5325241707e+00 2.6544097275e+00 
13300 5.1703607349e+00 7.0395230538e-03 1.5322896167e+00 -2.6540034680e+00 1.5322896167e+00 2.6540034680e+00 
13400 5.1703507811e+00 6.8921151573e-03 1.5320599164e+00 -2.6536056154e+00 1.5320599164e+00 2.6536056154e+00 
13500 5.1703412720e+00 6.7471611992e-03 1.5318349922e+00 -2.6532160353e+00 1.5318349922e+00 2.6532160353e+00 
13600 5.1703321905e+00 6.6046657153e-03 1.5316147662e+00 -2.6528345926e+00 1.5316147662e+00 2.6528345926e+00 
13700 5.1703235201e+00 6.4646307783e-03 1.5313991600e+00 -2.6524611518e+00 1.5313991600e+00 2.6524611518e+00 
13800 5.1703152446e+00 6.3270560923e-03 1.5311880954e+00 -2.6520955773e+00 1.5311880954e+00 2.6520955773e+00 
13900 5.1703073485e+00 6.1919390877e-03 1.5309814940e+00 -2.6517377330e+00 1.5309814940e+00 2.6517377330e+00 
14000 5.1702998168e+00 6.0592750155e-03 1.5307792772e+00 -2.6513874833e+00 1.5307792772e+00 2.6513874833e+00 
14100 5.1702926348e+00 5.9290570403e-03 1.5305813668e+00 -2.6510446924e+00 1.5305813668e+00 2.6510446924e+00 
14200 5.1702857885e+00 5.8012763342e-03 1.5303876844e+00 -2.6507092247e+00 1.5303876844e+00 2.6507092247e+00 
14300 5.1702792644e+00 5.6759221677e-03 1.5301981522e+00 -2.6503809452e+00 1.5301981522e+00 2.6503809452e+00 
14400 5.1702730492e+00 5.5529820013e-03 1.5300126923e+00 -2.6500597192e+00 1.5300126923e+00 2.6500597192e+00 
14500 5.1702671303e+00 5.4324415746e-03 1.5298312274e+00 -2.6497454128e+00 1.5298312274e+00 2.6497454128e+00 
14600 5.1702614955e+00 5.3142849949e-03 1.5296536804e+00 -2.6494378925e+00 1.5296536804e+00 2.6494378925e+00 
14700 5.1702561329e+00 5.1984948240e-03 1.5294799750e+00 -2.6491370258e+00 1.5294799750e+00 2.6491370258e+00 
14800 5.1702510312e+00 5.0850521629e-03 1.5293100349e+00 -2.6488426810e+00 1.5293100349e+00 2.6488426810e+00 
14900 5.1702461793e+00 4.9739367363e-03 1.5291437848e+00 -2.6485547273e+00 1.5291437848e+00 2.6485547273e+00 
15000 5.1702415668e+00 4.8651269736e-03 1.5289811497e+00 -2.6482730351e+00 1.5289811497e+00 2.6482730351e+00 
15100 5.1702371834e+00 4.7586000893e-03 1.5288220554e+00 -2.6479974757e+00 1.5288220554e+00 2.6479974757e+00 
15200 5.1702330194e+00 4.6543321612e-03 1.5286664284e+00 -2.6477279219e+00 1.5286664284e+00 2.6477279219e+00 
15300 5.1702290653e+00 4.5522982065e-03 1.5285141959e+00 -2.6474642474e+00 1.5285141959e+00 2.6474642474e+00 
15400 5.1702253120e+00 4.4524722562e-03 1.5283652858e+00 -2.6472063275e+00 1.5283652858e+00 2.6472063275e+00 
15500 5.1702217508e+00 4.3548274276e-03 1.5282196269e+00 -2.6469540388e+00 1.5282196269e+00 2.6469540388e+00 
15600 5.1702183733e+00 4.2593359942e-03 1.5280771487e+00 -2.6467072594e+00 1.5280771487e+00 2.6467072594e+00 
15700 5.1702151716e+00 4.1659694541e-03 1.5279377816e+00 -2.6464658686e+00 1.5279377816e+00 2.6464658686e+00 
15800 5.1702121377e+00 4.0746985966e-03 1.5278014571e+00 -2.6462297476e+00 1.5278014571e+00 2.6462297476e+00 
15900 5.1702092644e+00 3.9854935657e-03 1.5276681074e+00 -2.6459987790e+00 1.5276681074e+00 2.6459987790e+00 
16000 5.1702065445e+00 3.8983239225e-03 1.5275376655e+00 -2.6457728471e+00 1.5275376655e+00 2.6457728471e+00 
16100 5.1702039711e+00 3.8131587052e-03 1.5274100657e+00 -2.6455518378e+00 1.5274100657e+00 2.6455518378e+00 
16200 5.1702015377e+00 3.7299664870e-03 1.5272852431e+00 -2.6453356387e+00 1.5272852431e+00 2.6453356387e+00 
16300 5.1701992380e+00 3.6487154319e-03 1.5271631337e+00 -2.6451241391e+00 1.5271631337e+00 2.6451241391e+00 
16400 5.1701970660e+00 3.5693733488e-03 1.5270436747e+00 -2.6449172300e+00 1.5270436747e+00 2.6449172300e+00 
16500 5.1701950158e+00 3.4919077429e-03 1.5269268042e+00 -2.6447148043e+00 1.5269268042e+00 2.6447148043e+00 
16600 5.1701930820e+00 3.4162858660e-03 1.5268124613e+00 -2.6445167566e+00 1.5268124613e+00 2.6445167566e+00 
16700 5.1701912593e+00 3.3424747637e-03 1.5267005863e+00 -2.6443229834e+00 1.5267005863e+00 2.6443229834e+00 
16800 5.1701895425e+00 3.2704413219e-03 1.5265911203e+00 -2.6441333828e+00 1.5265911203e+00 2.6441333828e+00 
16900 5.1701879268e+00 3.2001523106e-03 1.5264840057e+00 -2.6439478549e+00 1.5264840057e+00 2.6439478549e+00 
17000 5.1701864075e+00 3.1315744254e-03 1.5263791859e+00 -2.6437663016e+00 1.5263791859e+00 2.6437663016e+00 
17100 5.1701849803e+00 3.0646743285e-03 1.5262766053e+00 -2.6435886267e+00 1.5262766053e+00 2.6435886267e+00 
17200 5.1701836408e+00 2.9994186865e-03 1.5261762093e+00 -2.6434147358e+00 1.5261762093e+00 2.6434147358e+00 
17300 5.1701823849e+00 2.9357742069e-03 1.5260779445e+00 -2.6432445363e+00 1.5260779445e+00 2.6432445363e+00 
17400 5.1701812088e+00 2.8737076733e-03 1.5259817586e+00 -2.6430779374e+00 1.5259817586e+00 2.6430779374e+00 
17500 5.1701801088e+00 2.8131859779e-03 1.5258876003e+00 -2.6429148504e+00 1.5258876003e+00 2.6429148504e+00 
17600 5.1701790812e+00 2.7541761533e-03 1.5257954193e+00 -2.6427551882e+00 1.5257954193e+00 2.6427551882e+00 
17700 5.1701781226e+00 2.6966454019e-03 1.5257051664e+00 -2.6425988656e+00 1.5257051664e+00 2.6425988656e+00 
17800 5.1701772299e+00 2.6405611241e-03 1.5256167935e+00 -2.6424457992e+00 1.5256167935e+00 2.6424457992e+00 
17900 5.1701763998e+00 2.5858909449e-03 1.5255302536e+00 -2.6422959076e+00 1.5255302536e+00 2.6422959076e+00 
18000 5.1701756295e+00 2.5326027387e-03 1.5254455005e+00 -2.6421491110e+00 1.5254455005e+00 2.6421491110e+00 
18100 5.1701749160e+00 2.4806646529e-03 1.5253624893e+00 -2.6420053315e+00 1.5253624893e+00 2.6420053315e+00 
18200 5.1701742566e+00 2.4300451296e-03 1.5252811761e+00 -2.6418644929e+00 1.5252811761e+00 2.6418644929e+00 
18300 5.1701736488e+00 2.3807129270e-03 1.5252015179e+00 -2.6417265208e+00 1.5252015179e+00 2.6417265208e+00 
18400 5.1701730901e+00 2.3326371378e-03 1.5251234727e+00 -2.6415913426e+00 1.5251234727e+00 2.6415913426e+00 
18500 5.1701725780e+00 2.2857872075e-03 1.5250469996e+00 -2.6414588873e+00 1.5250469996e+00 2.6414588873e+00 
18600 5.1701721104e+00 2.2401329511e-03 1.5249720587e+00 -2.6413290858e+00 1.5249720587e+00 2.6413290858e+00 
18700 5.1701716850e+00 2.1956445684e-03 1.5248986110e+00 -2.6412018706e+00 1.5248986110e+00 2.6412018706e+00 
18800 5.1701712999e+00 2.1522926581e-03 1.5248266184e+00 -2.6410771758e+00 1.5248266184e+00 2.6410771758e+00 
18900 5.1701709529e+00 2.1100482310e-03 1.5247560440e+00 -2.6409549373e+00 1.5247560440e+00 2.6409549373e+00 
19000 5.1701706423e+00 2.0688827217e-03 1.5246868515e+00 -2.6408350924e+00 1.5246868515e+00 2.6408350924e+00 
19100 5.1701703661e+00 2.0287679994e-03 1.5246190059e+00 -2.6407175803e+00 1.5246190059e+00 2.6407175803e+00 
19200 5.1701701228e+00 1.9896763779e-03 1.5245524727e+00 -2.6406023416e+00 1.5245524727e+00 2.6406023416e+00 
19300 5.1701699106e+00 1.9515806240e-03 1.5244872188e+00 -2.6404893184e+00 1.5244872188e+00 2.6404893184e+00 
19400 5.1701697280e+00 1.9144539656e-03 1.5244232114e+00 -2.6403784545e+00 1.5244232114e+00 2.6403784545e+00 
19500 5.1701695734e+00 1.8782700983e-03 1.5243604191e+00 -2.6402696950e+00 1.5243604191e+00 2.6402696950e+00 
19600 5.1701694455e+00 1.8430031912e-03 1.5242988111e+00 -2.6401629867e+00 1.5242988111e+00 2.6401629867e+00 
19700 5.1701693428e+00 1.8086278926e-03 1.5242383574e+00 -2.6400582778e+00 1.5242383574e+00 2.6400582778e+00 
19800 5.1701692641e+00 1.7751193336e-03 1.5241790288e+00 -2.6399555178e+00 1.5241790288e+00 2.6399555178e+00 
19900 5.1701692080e+00 1.7424531316e-03 1.5241207972e+00 -2.6398546577e+00 1.5241207972e+00 2.6398546577e+00 
20000 5.1701691735e+00 1.7106053936e-03 1.5240636350e+00 -2.6397556498e+00 1.5240636350e+00 2.6397556498e+00 
20100 5.1701691592e+00 1.6795527175e-03 1.5240075155e+00 -2.6396584479e+00 1.5240075155e+00 2.6396584479e+00 
20200 5.1701691642e+00 1.6492721936e-03 1.5239524126e+00 -2.6395630070e+00 1.5239524126e+00 2.6395630070e+00 
20300 5.1701691874e+00 1.6197414056e-03 1.5238983013e+00 -2.6394692834e+00 1.5238983013e+00 2.6394692834e+00 
20400 5.1701692278e+00 1.5909384300e-03 1.5238451569e+00 -2.6393772347e+00 1.5238451569e+00 2.6393772347e+00 
20500 5.1701692844e+00 1.5628418358e-03 1.5237929558e+00 -2.6392868196e+00 1.5237929558e+00 2.6392868196e+00 
20600 5.1701693563e+00 1.5354306835e-03 1.5237416748e+00 -2.6391979983e+00 1.5237416748e+00 2.6391979983e+00 
20700 5.1701694427e+00 1.5086845232e-03 1.5236912915e+00 -2.6391107319e+00 1.5236912915e+00 2.6391107319e+00 
20800 5.1701695427e+00 1.4825833924e-03 1.5236417842e+00 -2.6390249828e+00 1.5236417842e+00 2.6390249828e+00 
20900 5.1701696554e+00 1.4571078132e-03 1.5235931318e+00 -2.6389407144e+00 1.5235931318e+00 2.6389407144e+00 
21000 5.1701697803e+00 1.4322387895e-03 1.5235453139e+00 -2.6388578914e+00 1.5235453139e+00 2.6388578914e+00 
21100 5.1701699164e+00 1.4079578032e-03 1.5234983107e+00 -2.6387764794e+00 1.5234983107e+00 2.6387764794e+00 
21200 5.1701700631e+00 1.3842468103e-03 1.5234521029e+00 -2.6386964451e+00 1.5234521029e+00 2.6386964451e+00 
21300 5.1701702197e+00 1.3610882364e-03 1.5234066719e+00 -2.6386177562e+00 1.5234066719e+00 2.6386177562e+00 
21400 5.1701703857e+00 1.3384649722e-03 1.5233619996e+00 -2.6385403816e+00 1.5233619996e+00 2.6385403816e+00 
21500 5.1701705603e+00 1.3163603686e-03 1.5233180685e+00 -2.6384642907e+00 1.5233180685e+00 2.6384642907e+00 
21600 5.1701707431e+00 1.2947582308e-03 1.5232748617e+00 -2.6383894543e+00 1.5232748617e+00 2.6383894543e+00 
21700 5.1701709333e+00 1.2736428134e-03 1.5232323627e+00 -2.6383158439e+00 1.5232323627e+00 2.6383158439e+00 
21800 5.1701711306e+00 1.2529988139e-03 1.5231905557e+00 -2.6382434320e+00 1.5231905557e+00 2.6382434320e+00 
21900 5.1701713344e+00 1.2328113670e-03 1.5231494251e+00 -2.6381721918e+00 1.5231494251e+00 2.6381721918e+00 
22000 5.1701715442e+00 1.2130660382e-03 1.5231089561e+00 -2.6381020975e+00 1.5231089561e+00 2.6381020975e+00 
22100 5.1701717596e+00 1.1937488169e-03 1.5230691343e+00 -2.6380331240e+00 1.5230691343e+00 2.6380331240e+00 
22200 5.1701719800e+00 1.1748461100e-03 1.5230299455e+00 -2.6379652471e+00 1.5230299455e+00 2.6379652471e+00 
22300 5.1701722052e+00 1.1563447351e-03 1.5229913763e+00 -2.6378984433e+00 1.5229913763e+00 2.6378984433e+00 
22400 5.1701724346e+00 1.1382319129e-03 1.5229534135e+00 -2.6378326898e+00 1.5229534135e+00 2.6378326898e+00 
22500 5.1701726679e+00 1.1204952607e-03 1.5229160445e+00 -2.6377679647e+00 1.5229160445e+00 2.6377679647e+00 
22600 5.1701729047e+00 1.1031227845e-03 1.5228792568e+00 -2.6377042465e+00 1.5228792568e+00 2.6377042465e+00 
22700 5.1701731447e+00 1.0861028720e-03 1.5228430386e+00 -2.6376415148e+00 1.5228430386e+00 2.6376415148e+00 
22800 5.1701733876e+00 1.0694242848e-03 1.5228073784e+00 -2.6375797495e+00 1.5228073784e+00 2.6375797495e+00 
22900 5.1701736329e+00 1.0530761512e-03 1.5227722649e+00 -2.6375189312e+00 1.5227722649e+00 2.6375189312e+00 
23000 5.1701738805e+00 1.0370479580e-03 1.5227376875e+00 -2.6374590413e+00 1.5227376875e+00 2.6374590413e+00 
23100 5.1701741300e+00 1.0213295433e-03 1.5227036355e+00 -2.6374000615e+00 1.5227036355e+00 2.6374000615e+00 
23200 5.1701743811e+00 1.0059110888e-03 1.5226700989e+00 -2.6373419745e+00 1.5226700989e+00 2.6373419745e+00 
23300 5.1701746336e+00 9.9078311147e-04 1.5226370679e+00 -2.6372847630e+00 1.5226370679e+00 2.6372847630e+00 
23400 5.1701748872e+00 9.7593645657e-04 1.5226045329e+00 -2.6372284108e+00 1.5226045329e+00 2.6372284108e+00 
23500 5.1701751418e+00 9.6136228931e-04 1.5225724847e+00 -2.6371729018e+00 1.5225724847e+00 2.6371729018e+00 
23600 5.1701753969e+00 9.4705208733e-04 1.5225409145e+00 -2.6371182205e+00 1.5225409145e+00 2.6371182205e+00 
23700 5.1701756526e+00 9.3299763294e-04 1.5225098136e+00 -2.6370643521e+00 1.5225098136e+00 2.6370643521e+00 
23800 5.1701759085e+00 9.1919100538e-04 1.5224791736e+00 -2.6370112821e+00 1.5224791736e+00 2.6370112821e+00 
23900 5.1701761644e+00 9.0562457317e-04 1.5224489864e+00 -2.6369589963e+00 1.5224489864e+00 2.6369589963e+00 
24000 5.1701764203e+00 8.9229098644e-04 1.5224192441e+00 -2.6369074812e+00 1.5224192441e+00 2.6369074812e+00 
24100 5.1701766758e+00 8.7918316936e-04 1.5223899391e+00 -2.6368567235e+00 1.5223899391e+00 2.6368567235e+00 
24200 5.1701769308e+00 8.6629431263e-04 1.5223610641e+00 -2.6368067106e+00 1.5223610641e+00 2.6368067106e+00 
24300 5.1701771853e+00 8.5361786597e-04 1.5223326119e+00 -2.6367574298e+00 1.5223326119e+00 2.6367574298e+00 
24400 5.1701774389e+00 8.4114753077e-04 1.5223045755e+00 -2.6367088693e+00 1.5223045755e+00 2.6367088693e+00 
24500 5.1701776917e+00 8.2887725275e-04 1.5222769481e+00 -2.6366610173e+00 1.5222769481e+00 2.6366610173e+00 
24600 5.1701779434e+00 8.1680121473e-04 1.5222497233e+00 -2.6366138625e+00 1.5222497233e+00 2.6366138625e+00 
24700 5.1701781940e+00 8.0491382947e-04 1.5222228946e+00 -2.6365673939e+00 1.5222228946e+00 2.6365673939e+00 
24800 5.1701784432e+00 7.9320973263e-04 1.5221964559e+00 -2.6365216008e+00 1.5221964559e+00 2.6365216008e+00 
24900 5.1701786912e+00 7.8168377580e-04 1.5221704012e+00 -2.6364764727e+00 1.5221704012e+00 2.6364764727e+00 
25000 5.1701789376e+00 7.7033101962e-04 1.5221447247e+00 -2.6364319996e+00 1.5221447247e+00 2.6364319996e+00 
25100 5.1701791824e+00 7.5914672708e-04 1.5221194206e+00 -2.6363881717e+00 1.5221194206e+00 2.6363881717e+00 
25200 5.1701794256e+00 7.4812635679e-04 1.5220944835e+00 -2.6363449794e+00 1.5220944835e+00 2.6363449794e+00 
25300 5.1701796670e+00 7.3726555651e-04 1.5220699080e+00 -2.6363024134e+00 1.5220699080e+00 2.6363024134e+00 
25400 5.1701799066e+00 7.2656015668e-04 1.5220456889e+00 -2.6362604647e+00 1.5220456889e+00 2.6362604647e+00 
25500 5.1701801442e+00 7.1600616416e-04 1.5220218211e+00 -2.6362191244e+00 1.5220218211e+00 2.6362191244e+00 
25600 5.1701803799e+00 7.0559975597e-04 1.5219982996e+00 -2.6361783840e+00 1.5219982996e+00 2.6361783840e+00 
25700 5.1701806136e+00 6.9533727327e-04 1.5219751196e+00 -2.6361382351e+00 1.5219751196e+00 2.6361382351e+00 
25800 5.1701808452e+00 6.8521521540e-04 1.5219522764e+00 -2.6360986695e+00 1.5219522764e+00 2.6360986695e+00 
25900 5.1701810746e+00 6.7523023404e-04 1.5219297654e+00 -2.6360596793e+00 1.5219297654e+00 2.6360596793e+00 
26000 5.1701813019e+00 6.6537912754e-04 1.5219075821e+00 -2.6360212567e+00 1.5219075821e+00 2.6360212567e+00 
26100 5.1701815269e+00 6.5565883528e-04 1.5218857221e+00 -2.6359833941e+00 1.5218857221e+00 2.6359833941e+00 
26200 5.1701817496e+00 6.4606643230e-04 1.5218641812e+00 -2.6359460840e+00 1.5218641812e+00 2.6359460840e+00 
26300 5.1701819701e+00 6.3659912390e-04 1.5218429551e+00 -2.6359093194e+00 1.5218429551e+00 2.6359093194e+00 
26400 5.1701821882e+00 6.2725424052e-04 1.5218220397e+00 -2.6358730929e+00 1.5218220397e+00 2.6358730929e+00 
26500 5.1701824039e+00 6.1802923260e-04 1.5218014311e+00 -2.6358373977e+00 1.5218014311e+00 2.6358373977e+00 
26600 5.1701826172e+00 6.0892166568e-04 1.5217811253e+00 -2.6358022271e+00 1.5217811253e+00 2.6358022271e+00 
26700 5.1701828281e+00 5.9992921557e-04 1.5217611185e+00 -2.6357675742e+00 1.5217611185e+00 2.6357675742e+00 
26800 5.1701830365e+00 5.9104966367e-04 1.5217414069e+00 -2.6357334327e+00 1.5217414069e+00 2.6357334327e+00 
26900 5.1701832425e+00 5.8228089241e-04 1.5217219867e+00 -2.6356997960e+00 1.5217219867e+00 2.6356997960e+00 
27000 5.1701834460e+00 5.7362088080e-04 1.5217028545e+00 -2.6356666580e+00 1.5217028545e+00 2.6356666580e+00 
27100 5.1701836470e+00 5.6506770015e-04 1.5216840065e+00 -2.6356340123e+00 1.5216840065e+00 2.6356340123e+00 
27200 5.1701838455e+00 5.5661950984e-04 1.5216654394e+00 -2.6356018531e+00 1.5216654394e+00 2.6356018531e+00 
27300 5.1701840416e+00 5.4827455329e-04 1.5216471496e+00 -2.6355701743e+00 1.5216471496e+00 2.6355701743e+00 
27400 5.1701842351e+00 5.4003115401e-04 1.5216291338e+00 -2.6355389700e+00 1.5216291338e+00 2.6355389700e+00 
27500 5.1701844261e+00 5.3188771179e-04 1.5216113887e+00 -2.6355082346e+00 1.5216113887e+00 2.6355082346e+00 
27600 5.1701846146e+00 5.2384269897e-04 1.5215939109e+00 -2.6354779622e+00 1.5215939109e+00 2.6354779622e+00 
27700 5.1701848006e+00 5.1589465688e-04 1.5215766973e+00 -2.6354481474e+00 1.5215766973e+00 2.6354481474e+00 
27800 5.1701849841e+00 5.0804219240e-04 1.5215597447e+00 -2.6354187846e+00 1.5215597447e+00 2.6354187846e+00 
27900 5.1701851651e+00 5.0028397453e-04 1.5215430500e+00 -2.6353898685e+00 1.5215430500e+00 2.6353898685e+00 
28000 5.1701853436e+00 4.9261873125e-04 1.5215266100e+00 -2.6353613936e+00 1.5215266100e+00 2.6353613936e+00 
28100 5.1701855197e+00 4.8504524631e-04 1.5215104217e+00 -2.6353333547e+00 1.5215104217e+00 2.6353333547e+00 
28200 5.1701856932e+00 4.7756235627e-04 1.5214944822e+00 -2.6353057465e+00 1.5214944822e+00 2.6353057465e+00 
28300 5.1701858643e+00 4.7016894757e-04 1.5214787883e+00 -2.6352785640e+00 1.5214787883e+00 2.6352785640e+00 
28400 5.1701860330e+00 4.6286395372e-04 1.5214633373e+00 -2.6352518021e+00 1.5214633373e+00 2.6352518021e+00 
28500 5.1701861991e+00 4.5564635263e-04 1.5214481262e+00 -2.6352254556e+00 1.5214481262e+00 2.6352254556e+00 
28600 5.1701863629e+00 4.4851516399e-04 1.5214331521e+00 -2.6351995198e+00 1.5214331521e+00 2.6351995198e+00 
28700 5.1701865243e+00 4.4146944679e-04 1.5214184122e+00 -2.6351739896e+00 1.5214184122e+00 2.6351739896e+00 
28800 5.1701866833e+00 4.3450829689e-04 1.5214039038e+00 -2.6351488602e+00 1.5214039038e+00 2.6351488602e+00 
28900 5.1701868399e+00 4.2763084479e-04 1.5213896240e+00 -2.6351241268e+00 1.5213896240e+00 2.6351241268e+00 
29000 5.1701869941e+00 4.2083625334e-04 1.5213755700e+00 -2.6350997847e+00 1.5213755700e+00 2.6350997847e+00 
29100 5.1701871460e+00 4.1412371570e-04 1.5213617393e+00 -2.6350758291e+00 1.5213617393e+00 2.6350758291e+00 
29200 5.1701872956e+00 4.0749245324e-04 1.5213481290e+00 -2.6350522554e+00 1.5213481290e+00 2.6350522554e+00 
29300 5.1701874428e+00 4.0094171368e-04 1.5213347365e+00 -2.6350290590e+00 1.5213347365e+00 2.6350290590e+00 
29400 5.1701875878e+00 3.9447076920e-04 1.5213215592e+00 -2.6350062353e+00 1.5213215592e+00 2.6350062353e+00 
29500 5.1701877306e+00 3.8807891465e-04 1.5213085945e+00 -2.6349837797e+00 1.5213085945e+00 2.6349837797e+00 
29600 5.1701878711e+00 3.8176546592e-04 1.5212958398e+00 -2.6349616878e+00 1.5212958398e+00 2.6349616878e+00 
29700 5.1701880094e+00 3.7552975827e-04 1.5212832924e+00 -2.6349399551e+00 1.5212832924e+00 2.6349399551e+00 
29800 5.1701881455e+00 3.6937114487e-04 1.5212709499e+00 -2.6349185773e+00 1.5212709499e+00 2.6349185773e+00 
29900 5.1701882794e+00 3.6328899528e-04 1.5212588097e+00 -2.6348975498e+00 1.5212588097e+00 2.6348975498e+00 
30000 5.1701884112e+00 3.5728269410e-04 1.5212468693e+00 -2.6348768685e+00 1.5212468693e+00 2.6348768685e+00 
30100 5.1701885409e+00 3.5135163966e-04 1.5212351262e+00 -2.6348565289e+00 1.5212351262e+00 2.6348565289e+00 
30200 5.1701886685e+00 3.4549524275e-04 1.5212235780e+00 -2.6348365268e+00 1.5212235780e+00 2.6348365268e+00 
30300 5.1701887940e+00 3.3971292548e-04 1.5212122222e+00 -2.6348168579e+00 1.5212122222e+00 2.6348168579e+00 
30400 5.1701889174e+00 3.3400412016e-04 1.5212010563e+00 -2.6347975181e+00 1.5212010563e+00 2.6347975181e+00 
30500 5.1701890388e+00 3.2836826821e-04 1.5211900780e+00 -2.6347785031e+00 1.5211900780e+00 2.6347785031e+00 
30600 5.1701891582e+00 3.2280481924e-04 1.5211792849e+00 -2.6347598089e+00 1.5211792849e+00 2.6347598089e+00 
30700 5.1701892757e+00 3.1731323004e-04 1.5211686746e+00 -2.6347414313e+00 1.5211686746e+00 2.6347414313e+00 
30800 5.1701893912e+00 3.1189296379e-04 1.5211582447e+00 -2.6347233661e+00 1.5211582447e+00 2.6347233661e+00 
30900 5.1701895048e+00 3.0654348915e-04 1.5211479929e+00 -2.6347056095e+00 1.5211479929e+00 2.6347056095e+00 
31000 5.1701896164e+00 3.0126427958e-04 1.5211379168e+00 -2.6346881573e+00 1.5211379168e+00 2.6346881573e+00 
31100 5.1701897262e+00 2.9605481255e-04 1.5211280142e+00 -2.6346710055e+00 1.5211280142e+00 2.6346710055e+00 
31200 5.1701898342e+00 2.9091456893e-04 1.5211182828e+00 -2.6346541502e+00 1.5211182828e+00 2.6346541502e+00 
31300 5.1701899403e+00 2.8584303232e-04 1.5211087203e+00 -2.6346375874e+00 1.5211087203e+00 2.6346375874e+00 
31400 5.1701900446e+00 2.8083968852e-04 1.5210993244e+00 -2.6346213133e+00 1.5210993244e+00 2.6346213133e+00 
31500 5.1701901472e+00 2.7590402496e-04 1.5210900930e+00 -2.6346053239e+00 1.5210900930e+00 2.6346053239e+00 
31600 5.1701902480e+00 2.7103553023e-04 1.5210810237e+00 -2.6345896155e+00 1.5210810237e+00 2.6345896155e+00 
31700 5.1701903470e+00 2.6623369363e-04 1.5210721144e+00 -2.6345741841e+00 1.5210721144e+00 2.6345741841e+00 
31800 5.1701904444e+00 2.6149800473e-04 1.5210633629e+00 -2.6345590261e+00 1.5210633629e+00 2.6345590261e+00 
31900 5.1701905401e+00 2.5682795305e-04 1.5210547670e+00 -2.6345441376e+00 1.5210547670e+00 2.6345441376e+00 
32000 5.1701906341e+00 2.5222302766e-04 1.5210463246e+00 -2.6345295149e+00 1.5210463246e+00 2.6345295149e+00 
32100 5.1701907266e+00 2.4768271692e-04 1.5210380335e+00 -2.6345151543e+00 1.5210380335e+00 2.6345151543e+00 
32200 5.1701908174e+00 2.4320650818e-04 1.5210298916e+00 -2.6345010521e+00 1.5210298916e+00 2.6345010521e+00 
32300 5.1701909066e+00 2.3879388753e-04 1.5210218968e+00 -2.6344872047e+00 1.5210218968e+00 2.6344872047e+00 
32400 5.1701909942e+00 2.3444433961e-04 1.5210140470e+00 -2.6344736085e+00 1.5210140470e+00 2.6344736085e+00 
32500 5.1701910804e+00 2.3015734742e-04 1.5210063402e+00 -2.6344602599e+00 1.5210063402e+00 2.6344602599e+00 
32600 5.1701911650e+00 2.2593239213e-04 1.5209987743e+00 -2.6344471553e+00 1.5209987743e+00 2.6344471553e+00 
32700 5.1701912481e+00 2.2176895298e-04 1.5209913472e+00 -2.6344342911e+00 1.5209913472e+00 2.6344342911e+00 
32800 5.1701913298e+00 2.1766650715e-04 1.5209840569e+00 -2.6344216640e+00 1.5209840569e+00 2.6344216640e+00 
32900 5.1701914100e+00 2.1362452967e-04 1.5209769014e+00 -2.6344092704e+00 1.5209769014e+00 2.6344092704e+00 
33000 5.1701914889e+00 2.0964249338e-04 1.5209698788e+00 -2.6343971069e+00 1.5209698788e+00 2.6343971069e+00 
33100 5.1701915663e+00 2.0571986883e-04 1.5209629871e+00 -2.6343851701e+00 1.5209629871e+00 2.6343851701e+00 
33200 5.1701916423e+00 2.0185612429e-04 1.5209562243e+00 -2.6343734566e+00 1.5209562243e+00 2.6343734566e+00 
33300 5.1701917170e+00 1.9805072574e-04 1.5209495885e+00 -2.6343619630e+00 1.5209495885e+00 2.6343619630e+00 
33400 5.1701917904e+00 1.9430313687e-04 1.5209430777e+00 -2.6343506860e+00 1.5209430777e+00 2.6343506860e+00 
33500 5.1701918624e+00 1.9061281908e-04 1.5209366901e+00 -2.6343396224e+00 1.5209366901e+00 2.6343396224e+00 
33600 5.1701919332e+00 1.8697923155e-04 1.5209304238e+00 -2.6343287689e+00 1.5209304238e+00 2.6343287689e+00 
33700 5.1701920027e+00 1.8340183126e-04 1.5209242770e+00 -2.6343181222e+00 1.5209242770e+00 2.6343181222e+00 
33800 5.1701920709e+00 1.7988007308e-04 1.5209182477e+00 -2.6343076791e+00 1.5209182477e+00 2.6343076791e+00 
33900 5.1701921379e+00 1.7641340984e-04 1.5209123342e+00 -2.6342974366e+00 1.5209123342e+00 2.6342974366e+00 
34000 5.1701922038e+00 1.7300129238e-04 1.5209065346e+00 -2.6342873914e+00 1.5209065346e+00 2.6342873914e+00 
34100 5.1701922684e+00 1.6964316970e-04 1.5209008471e+00 -2.6342775405e+00 1.5209008471e+00 2.6342775405e+00 
34200 5.1701923319e+00 1.6633848903e-04 1.5208952701e+00 -2.6342678808e+00 1.5208952701e+00 2.6342678808e+00 
34300 5.1701923942e+00 1.6308669595e-04 1.5208898016e+00 -2.6342584091e+00 1.5208898016e+00 2.6342584091e+00 
34400 5.1701924554e+00 1.5988723452e-04 1.5208844401e+00 -2.6342491227e+00 1.5208844401e+00 2.6342491227e+00 
34500 5.1701925155e+00 1.5673954739e-04 1.5208791837e+00 -2.6342400183e+00 1.5208791837e+00 2.6342400183e+00 
34600 5.1701925745e+00 1.5364307597e-04 1.5208740308e+00 -2.6342310932e+00 1.5208740308e+00 2.6342310932e+00 
34700 5.1701926324e+00 1.5059726052e-04 1.5208689796e+00 -2.6342223444e+00 1.5208689796e+00 2.6342223444e+00 
34800 5.1701926893e+00 1.4760154036e-04 1.5208640286e+00 -2.6342137689e+00 1.5208640286e+00 2.6342137689e+00 
34900 5.1701927451e+00 1.4465535394e-04 1.5208591761e+00 -2.6342053641e+00 1.5208591761e+00 2.6342053641e+00 
35000 5.1701927999e+00 1.4175813907e-04 1.5208544203e+00 -2.6341971270e+00 1.5208544203e+00 2.6341971270e+00 
35100 5.1701928537e+00 1.3890933303e-04 1.5208497599e+00 -2.6341890548e+00 1.5208497599e+00 2.6341890548e+00 
35200 5.1701929066e+00 1.3610837275e-04 1.5208451930e+00 -2.6341811448e+00 1.5208451930e+00 2.6341811448e+00 
35300 5.1701929585e+00 1.3335469498e-04 1.5208407183e+00 -2.6341733943e+00 1.5208407183e+00 2.6341733943e+00 
35400 5.1701930094e+00 1.3064773641e-04 1.5208363340e+00 -2.6341658006e+00 1.5208363340e+00 2.6341658006e+00 
35500 5.1701930594e+00 1.2798693390e-04 1.5208320388e+00 -2.6341583609e+00 1.5208320388e+00 2.6341583609e+00 
35600 5.1701931085e+00 1.2537172458e-04 1.5208278310e+00 -2.6341510728e+00 1.5208278310e+00 2.6341510728e+00 
35700 5.1701931566e+00 1.2280154608e-04 1.5208237092e+00 -2.6341439336e+00 1.5208237092e+00 2.6341439336e+00 
35800 5.1701932039e+00 1.2027583665e-04 1.5208196718e+00 -2.6341369408e+00 1.5208196718e+00 2.6341369408e+00 
35900 5.1701932504e+00 1.1779403535e-04 1.5208157175e+00 -2.6341300917e+00 1.5208157175e+00 2.6341300917e+00 
36000 5.1701932959e+00 1.1535558219e-04 1.5208118448e+00 -2.6341233839e+00 1.5208118448e+00 2.6341233839e+00 
36100 5.1701933407e+00 1.1295991834e-04 1.5208080522e+00 -2.6341168150e+00 1.5208080522e+00 2.6341168150e+00 
36200 5.1701933846e+00 1.1060648626e-04 1.5208043384e+00 -2.6341103825e+00 1.5208043384e+00 2.6341103825e+00 
36300 5.1701934277e+00 1.0829472986e-04 1.5208007020e+00 -2.6341040840e+00 1.5208007020e+00 2.6341040840e+00 
36400 5.1701934700e+00 1.0602409468e-04 1.5207971415e+00 -2.6340979171e+00 1.5207971415e+00 2.6340979171e+00 
36500 5.1701935115e+00 1.0379402804e-04 1.5207936557e+00 -2.6340918795e+00 1.5207936557e+00 2.6340918795e+00 
36600 5.1701935523e+00 1.0160397918e-04 1.5207902432e+00 -2.6340859689e+00 1.5207902432e+00 2.6340859689e+00 
36700 5.1701935923e+00 9.9453399446e-05 1.5207869027e+00 -2.6340801830e+00 1.5207869027e+00 2.6340801830e+00 
36800 5.1701936316e+00 9.7341742416e-05 1.5207836329e+00 -2.6340745196e+00 1.5207836329e+00 2.6340745196e+00 
36900 5.1701936701e+00 9.5268464056e-05 1.5207804326e+00 -2.6340689763e+00 1.5207804326e+00 2.6340689763e+00 
37000 5.1701937080e+00 9.3233022862e-05 1.5207773003e+00 -2.6340635512e+00 1.5207773003e+00 2.6340635512e+00 
37100 5.1701937451e+00 9.1234880009e-05 1.5207742350e+00 -2.6340582419e+00 1.5207742350e+00 2.6340582419e+00 
37200 5.1701937815e+00 8.9273499479e-05 1.5207712354e+00 -2.6340530464e+00 1.5207712354e+00 2.6340530464e+00 
37300 5.1701938173e+00 8.7348348204e-05 1.5207683003e+00 -2.6340479626e+00 1.5207683003e+00 2.6340479626e+00 
37400 5.1701938524e+00 8.5458896193e-05 1.5207654284e+00 -2.6340429884e+00 1.5207654284e+00 2.6340429884e+00 
37500 5.1701938869e+00 8.3604616662e-05 1.5207626187e+00 -2.6340381218e+00 1.5207626187e+00 2.6340381218e+00 
37600 5.1701939207e+00 8.1784986156e-05 1.5207598699e+00 -2.6340333608e+00 1.5207598699e+00 2.6340333608e+00 
37700 5.1701939539e+00 7.9999484670e-05 1.5207571810e+00 -2.6340287034e+00 1.5207571810e+00 2.6340287034e+00 
37800 5.1701939865e+00 7.8247595763e-05 1.5207545507e+00 -2.6340241477e+00 1.5207545507e+00 2.6340241477e+00 
37900 5.1701940185e+00 7.6528806672e-05 1.5207519781e+00 -2.6340196917e+00 1.5207519781e+00 2.6340196917e+00 
38000 5.1701940499e+00 7.4842608418e-05 1.5207494619e+00 -2.6340153336e+00 1.5207494619e+00 2.6340153336e+00 
38100 5.1701940807e+00 7.3188495914e-05 1.5207470012e+00 -2.6340110715e+00 1.5207470012e+00 2.6340110715e+00 
38200 5.1701941109e+00 7.1565968056e-05 1.5207445949e+00 -2.6340069036e+00 1.5207445949e+00 2.6340069036e+00 
38300 5.1701941406e+00 6.9974527831e-05 1.5207422419e+00 -2.6340028281e+00 1.5207422419e+00 2.6340028281e+00 
38400 5.1701941700e+00 7.0520181209e-05 1.5207422419e+00 -2.6340028281e+00 1.5207422419e+00 2.6340028281e+00 
38500 5.1701941987e+00 7.1063502746e-05 1.5207422419e+00 -2.6340028281e+00 1.5207422419e+00 2.6340028281e+00 
38600 5.1701942268e+00 6.9465062695e-05 1.5207399054e+00 -2.6339987812e+00 1.5207399054e+00 2.6339987812e+00 
38700 5.1701942545e+00 6.9988461584e-05 1.5207399054e+00 -2.6339987812e+00 1.5207399054e+00 2.6339987812e+00 
38800 5.1701942817e+00 7.0509300561e-05 1.5207399054e+00 -2.6339987812e+00 1.5207399054e+00 2.6339987812e+00 
38900 5.1701943084e+00 7.1027417122e-05 1.5207399054e+00 -2.6339987812e+00 1.5207399054e+00 2.6339987812e+00 
39000 5.1701943344e+00 6.9404477816e-05 1.5207375701e+00 -2.6339947364e+00 1.5207375701e+00 2.6339947364e+00 
39100 5.1701943601e+00 6.9901890839e-05 1.5207375701e+00 -2.6339947364e+00 1.5207375701e+00 2.6339947364e+00 
39200 5.1701943854e+00 7.0396349495e-05 1.5207375701e+00 -2.6339947364e+00 1.5207375701e+00 2.6339947364e+00 
39300 5.1701944101e+00 7.0887693526e-05 1.5207375701e+00 -2.6339947364e+00 1.5207375701e+00 2.6339947364e+00 
39400 5.1701944342e+00 6.9241809134e-05 1.5207352394e+00 -2.6339906995e+00 1.5207352394e+00 2.6339906995e+00 
39500 5.1701944581e+00 6.9711707275e-05 1.5207352394e+00 -2.6339906995e+00 1.5207352394e+00 2.6339906995e+00 
39600 5.1701944815e+00 7.0178273892e-05 1.5207352394e+00 -2.6339906995e+00 1.5207352394e+00 2.6339906995e+00 
39700 5.1701945045e+00 7.0641356522e-05 1.5207352394e+00 -2.6339906995e+00 1.5207352394e+00 2.6339906995e+00 
39800 5.1701945270e+00 7.1100803924e-05 1.5207352394e+00 -2.6339906995e+00 1.5207352394e+00 2.6339906995e+00 
39900 5.1701945489e+00 6.9416107545e-05 1.5207329017e+00 -2.6339866505e+00 1.5207329017e+00 2.6339866505e+00 
40000 5.1701945706e+00 6.9853056804e-05 1.5207329017e+00 -2.6339866505e+00 1.5207329017e+00 2.6339866505e+00 
40100 5.1701945919e+00 7.0286190387e-05 1.5207329017e+00 -2.6339866505e+00 1.5207329017e+00 2.6339866505e+00 
40200 5.1701946128e+00 7.0715370247e-05 1.5207329017e+00 -2.6339866505e+00 1.5207329017e+00 2.6339866505e+00 
40300 5.1701946331e+00 6.9011707664e-05 1.5207305767e+00 -2.6339826234e+00 1.5207305767e+00 2.6339826234e+00 
40400 5.1701946533e+00 6.9417875047e-05 1.5207305767e+00 -2.6339826234e+00 1.5207305767e+00 2.6339826234e+00 
40500 5.1701946730e+00 6.9819950231e-05 1.5207305767e+00 -2.6339826234e+00 1.5207305767e+00 2.6339826234e+00 
40600 5.1701946924e+00 7.0217810661e-05 1.5207305767e+00 -2.6339826234e+00 1.5207305767e+00 2.6339826234e+00 
40700 5.1701947115e+00 7.0611336495e-05 1.5207305767e+00 -2.6339826234e+00 1.5207305767e+00 2.6339826234e+00 
40800 5.1701947302e+00 7.1000410820e-05 1.5207305767e+00 -2.6339826234e+00 1.5207305767e+00 2.6339826234e+00 
40900 5.1701947483e+00 6.9247590941e-05 1.5207282422e+00 -2.6339785801e+00 1.5207282422e+00 2.6339785801e+00 
41000 5.1701947663e+00 6.9612665020e-05 1.5207282422e+00 -2.6339785801e+00 1.5207282422e+00 2.6339785801e+00 
41100 5.1701947839e+00 6.9973218210e-05 1.5207282422e+00 -2.6339785801e+00 1.5207282422e+00 2.6339785801e+00 
41200 5.1701948013e+00 7.0329151914e-05 1.5207282422e+00 -2.6339785801e+00 1.5207282422e+00 2.6339785801e+00 
41300 5.1701948183e+00 7.0680370724e-05 1.5207282422e+00 -2.6339785801e+00 1.5207282422e+00 2.6339785801e+00 
41400 5.1701948350e+00 7.1026782559e-05 1.5207282422e+00 -2.6339785801e+00 1.5207282422e+00 2.6339785801e+00 
41500 5.1701948512e+00 6.9230175899e-05 1.5207259069e+00 -2.6339745352e+00 1.5207259069e+00 2.6339745352e+00 
41600 5.1701948673e+00 6.9551947191e-05 1.5207259069e+00 -2.6339745352e+00 1.5207259069e+00 2.6339745352e+00 
41700 5.1701948830e+00 6.9868918306e-05 1.5207259069e+00 -2.6339745352e+00 1.5207259069e+00 2.6339745352e+00 
41800 5.1701948985e+00 7.0181016344e-05 1.5207259069e+00 -2.6339745352e+00 1.5207259069e+00 2.6339745352e+00 
41900 5.1701949137e+00 7.0488171642e-05 1.5207259069e+00 -2.6339745352e+00 1.5207259069e+00 2.6339745352e+00 
42000 5.1701949287e+00 7.0790317866e-05 1.5207259069e+00 -2.6339745352e+00 1.5207259069e+00 2.6339745352e+00 
42100 5.1701949431e+00 6.8956383475e-05 1.5207235794e+00 -2.6339705038e+00 1.5207235794e+00 2.6339705038e+00 
42200 5.1701949575e+00 6.9233611537e-05 1.5207235794e+00 -2.6339705038e+00 1.5207235794e+00 2.6339705038e+00 
42300 5.1701949716e+00 6.9505913115e-05 1.5207235794e+00 -2.6339705038e+00 1.5207235794e+00 2.6339705038e+00 
42400 5.1701949854e+00 6.9773240522e-05 1.5207235794e+00 -2.6339705038e+00 1.5207235794e+00 2.6339705038e+00 
42500 5.1701949990e+00 7.0035549080e-05 1.5207235794e+00 -2.6339705038e+00 1.5207235794e+00 2.6339705038e+00 
42600 5.1701950124e+00 7.0292797156e-05 1.5207235794e+00 -2.6339705038e+00 1.5207235794e+00 2.6339705038e+00 
42700 5.1701950255e+00 7.0544946209e-05 1.5207235794e+00 -2.6339705038e+00 1.5207235794e+00 2.6339705038e+00 
42800 5.1701950384e+00 7.0791960811e-05 1.5207235794e+00 -2.6339705038e+00 1.5207235794e+00 2.6339705038e+00 
42900 5.1701950508e+00 6.8902743194e-05 1.5207212519e+00 -2.6339664724e+00 1.5207212519e+00 2.6339664724e+00 
43000 5.1701950632e+00 6.9124680791e-05 1.5207212519e+00 -2.6339664724e+00 1.5207212519e+00 2.6339664724e+00 
43100 5.1701950753e+00 6.9341657452e-05 1.5207212519e+00 -2.6339664724e+00 1.5207212519e+00 2.6339664724e+00 
43200 5.1701950873e+00 6.9553655076e-05 1.5207212519e+00 -2.6339664724e+00 1.5207212519e+00 2.6339664724e+00 
43300 5.1701950990e+00 6.9760658132e-05 1.5207212519e+00 -2.6339664724e+00 1.5207212519e+00 2.6339664724e+00 
43400 5.1701951105e+00 6.9962653661e-05 1.5207212519e+00 -2.6339664724e+00 1.5207212519e+00 2.6339664724e+00 
43500 5.1701951218e+00 7.0159631286e-05 1.5207212519e+00 -2.6339664724e+00 1.5207212519e+00 2.6339664724e+00 
43600 5.1701951329e+00 7.0351583211e-05 1.5207212519e+00 -2.6339664724e+00 1.5207212519e+00 2.6339664724e+00 
43700 5.1701951437e+00 7.0538504208e-05 1.5207212519e+00 -2.6339664724e+00 1.5207212519e+00 2.6339664724e+00 
43800 5.1701951544e+00 7.0720391612e-05 1.5207212519e+00 -2.6339664724e+00 1.5207212519e+00 2.6339664724e+00 
43900 5.1701951647e+00 6.8768320977e-05 1.5207189266e+00 -2.6339624450e+00 1.5207189266e+00 2.6339624450e+00 
44000 5.1701951750e+00 6.8925444615e-05 1.5207189266e+00 -2.6339624450e+00 1.5207189266e+00 2.6339624450e+00 
44100 5.1701951851e+00 6.9077802418e-05 1.5207189266e+00 -2.6339624450e+00 1.5207189266e+00 2.6339624450e+00 
44200 5.1701951950e+00 6.9225406472e-05 1.5207189266e+00 -2.6339624450e+00 1.5207189266e+00 2.6339624450e+00 
44300 5.1701952048e+00 6.9368270704e-05 1.5207189266e+00 -2.6339624450e+00 1.5207189266e+00 2.6339624450e+00 
44400 5.1701952143e+00 6.9506410883e-05 1.5207189266e+00 -2.6339624450e+00 1.5207189266e+00 2.6339624450e+00 
44500 5.1701952237e+00 6.9639844599e-05 1.5207189266e+00 -2.6339624450e+00 1.5207189266e+00 2.6339624450e+00 
44600 5.1701952330e+00 6.9768591242e-05 1.5207189266e+00 -2.6339624450e+00 1.5207189266e+00 2.6339624450e+00 
44700 5.1701952420e+00 6.9892671983e-05 1.5207189266e+00 -2.6339624450e+00 1.5207189266e+00 2.6339624450e+00 
44800 5.1701952509e+00 7.0012109742e-05 1.5207189266e+00 -2.6339624450e+00 1.5207189266e+00 2.6339624450e+00 
44900 5.1701952596e+00 7.0126929167e-05 1.5207189266e+00 -2.6339624450e+00 1.5207189266e+00 2.6339624450e+00 
45000 5.1701952682e+00 7.0237156597e-05 1.5207189266e+00 -2.6339624450e+00 1.5207189266e+00 2.6339624450e+00 
45100 5.1701952766e+00 7.0342820029e-05 1.5207189266e+00 -2.6339624450e+00 1.5207189266e+00 2.6339624450e+00 
45200 5.1701952849e+00 7.0443949083e-05 1.5207189266e+00 -2.6339624450e+00 1.5207189266e+00 2.6339624450e+00 
45300 5.1701952930e+00 7.0540574966e-05 1.5207189266e+00 -2.6339624450e+00 1.5207189266e+00 2.6339624450e+00 
45400 5.1701953009e+00 7.0632730428e-05 1.5207189266e+00 -2.6339624450e+00 1.5207189266e+00 2.6339624450e+00 
45500 5.1701953088e+00 7.0720449724e-05 1.5207189266e+00 -2.6339624450e+00 1.5207189266e+00 2.6339624450e+00 
45600 5.1701953162e+00 6.8674815411e-05 1.5207166014e+00 -2.6339584175e+00 1.5207166014e+00 2.6339584175e+00 
45700 5.1701953238e+00 6.8739073488e-05 1.5207166014e+00 -2.6339584175e+00 1.5207166014e+00 2.6339584175e+00 
45800 5.1701953312e+00 6.8799267260e-05 1.5207166014e+00 -2.6339584175e+00 1.5207166014e+00 2.6339584175e+00 
45900 5.1701953385e+00 6.8855441291e-05 1.5207166014e+00 -2.6339584175e+00 1.5207166014e+00 2.6339584175e+00 
46000 5.1701953456e+00 6.8907640845e-05 1.5207166014e+00 -2.6339584175e+00 1.5207166014e+00 2.6339584175e+00 
46100 5.1701953526e+00 6.8955911863e-05 1.5207166014e+00 -2.6339584175e+00 1.5207166014e+00 2.6339584175e+00 
46200 5.1701953595e+00 6.9000300938e-05 1.5207166014e+00 -2.6339584175e+00 1.5207166014e+00 2.6339584175e+00 
46300 5.1701953663e+00 6.9040855292e-05 1.5207166014e+00 -2.6339584175e+00 1.5207166014e+00 2.6339584175e+00 
46400 5.1701953729e+00 6.9077622752e-05 1.5207166014e+00 -2.6339584175e+00 1.5207166014e+00 2.6339584175e+00 
46500 5.1701953794e+00 6.9110651717e-05 1.5207166014e+00 -2.6339584175e+00 1.5207166014e+00 2.6339584175e+00 
46600 5.1701953858e+00 6.9139991139e-05 1.5207166014e+00 -2.6339584175e+00 1.5207166014e+00 2.6339584175e+00 
46700 5.1701953921e+00 6.9165690486e-05 1.5207166014e+00 -2.6339584175e+00 1.5207166014e+00 2.6339584175e+00 
46800 5.1701953983e+00 6.9187799723e-05 1.5207166014e+00 -2.6339584175e+00 1.5207166014e+00 2.6339584175e+00 
46900 5.1701954044e+00 6.9206369277e-05 1.5207166014e+00 -2.6339584175e+00 1.5207166014e+00 2.6339584175e+00 
47000 5.1701954103e+00 6.9221450004e-05 1.5207166014e+00 -2.6339584175e+00 1.5207166014e+00 2.6339584175e+00 
47100 5.1701954162e+00 6.9233093171e-05 1.5207166014e+00 -2.6339584175e+00 1.5207166014e+00 2.6339584175e+00 
47200 5.1701954220e+00 6.9241350415e-05 1.5207166014e+00 -2.6339584175e+00 1.5207166014e+00 2.6339584175e+00 
47300 5.1701954276e+00 6.9246273718e-05 1.5207166014e+00 -2.6339584175e+00 1.5207166014e+00 2.6339584175e+00 
47400 5.1701954332e+00 6.9247915374e-05 1.5207166014e+00 -2.6339584175e+00 1.5207166014e+00 2.6339584175e+00 
47500 5.1701954386e+00 6.9246327963e-05 1.5207166014e+00 -2.6339584175e+00 1.5207166014e+00 2.6339584175e+00 
47600 5.1701954440e+00 6.9241564316e-05 1.5207166014e+00 -2.6339584175e+00 1.5207166014e+00 2.6339584175e+00 
47700 5.1701954492e+00 6.9233677489e-05 1.5207166014e+00 -2.6339584175e+00 1.5207166014e+00 2.6339584175e+00 
47800 5.1701954544e+00 6.9222720731e-05 1.5207166014e+00 -2.6339584175e+00 1.5207166014e+00 2.6339584175e+00 
47900 5.1701954595e+00 6.9208747452e-05 1.5207166014e+00 -2.6339584175e+00 1.5207166014e+00 2.6339584175e+00 
48000 5.1701954645e+00 6.9191811202e-05 1.5207166014e+00 -2.6339584175e+00 1.5207166014e+00 2.6339584175e+00 
48100 5.1701954694e+00 6.9171965631e-05 1.5207166014e+00 -2.6339584175e+00 1.5207166014e+00 2.6339584175e+00 
48200 5.1701954742e+00 6.9149264465e-05 1.5207166014e+00 -2.6339584175e+00 1.5207166014e+00 2.6339584175e+00 
48300 5.1701954789e+00 6.9123761482e-05 1.5207166014e+00 -2.6339584175e+00 1.5207166014e+00 2.6339584175e+00 
48400 5.1701954835e+00 6.9095510477e-05 1.5207166014e+00 -2.6339584175e+00 1.5207166014e+00 2.6339584175e+00 
48500 5.1701954881e+00 6.9064565238e-05 1.5207166014e+00 -2.6339584175e+00 1.5207166014e+00 2.6339584175e+00 
48600 5.1701954926e+00 6.9030979519e-05 1.5207166014e+00 -2.6339584175e+00 1.5207166014e+00 2.6339584175e+00 
48700 5.1701954970e+00 6.8994807010e-05 1.5207166014e+00 -2.6339584175e+00 1.5207166014e+00 2.6339584175e+00 
48800 5.1701955013e+00 6.8956101317e-05 1.5207166014e+00 -2.6339584175e+00 1.5207166014e+00 2.6339584175e+00 
48900 5.1701955056e+00 6.8914915933e-05 1.5207166014e+00 -2.6339584175e+00 1.5207166014e+00 2.6339584175e+00 
49000 5.1701955098e+00 6.8871304212e-05 1.5207166014e+00 -2.6339584175e+00 1.5207166014e+00 2.6339584175e+00 
49100 5.1701955139e+00 6.8825319345e-05 1.5207166014e+00 -2.6339584175e+00 1.5207166014e+00 2.6339584175e+00 
49200 5.1701955179e+00 6.8777014341e-05 1.5207166014e+00 -2.6339584175e+00 1.5207166014e+00 2.6339584175e+00 
49300 5.1701955219e+00 6.8726441998e-05 1.5207166014e+00 -2.6339584175e+00 1.5207166014e+00 2.6339584175e+00 
49400 5.1701955258e+00 6.8673654883e-05 1.5207166014e+00 -2.6339584175e+00 1.5207166014e+00 2.6339584175e+00 
49500 5.1701955296e+00 6.8618705310e-05 1.5207166014e+00 -2.6339584175e+00 1.5207166014e+00 2.6339584175e+00 
49600 5.1701955333e+00 6.8561645321e-05 1.5207166014e+00 -2.6339584175e+00 1.5207166014e+00 2.6339584175e+00 
49700 5.1701955370e+00 6.8502526661e-05 1.5207166014e+00 -2.6339584175e+00 1.5207166014e+00 2.6339584175e+00 
49800 5.1701955407e+00 6.8441400764e-05 1.5207166014e+00 -2.6339584175e+00 1.5207166014e+00 2.6339584175e+00 
49900 5.1701955442e+00 6.8378318727e-05 1.5207166014e+00 -2.6339584175e+00 1.5207166014e+00 2.6339584175e+00 
50000 5.1701955477e+00 6.8313331299e-05 1.5207166014e+00 -2.6339584175e+00 1.5207166014e+00 2.6339584175e+00 
50100 5.1701955512e+00 6.8246488856e-05 1.5207166014e+00 -2.6339584175e+00 1.5207166014e+00 2.6339584175e+00 
50200 5.1701955546e+00 6.8177841392e-05 1.5207166014e+00 -2.6339584175e+00 1.5207166014e+00 2.6339584175e+00 
50300 5.1701955579e+00 6.8107438495e-05 1.5207166014e+00 -2.6339584175e+00 1.5207166014e+00 2.6339584175e+00 
50400 5.1701955612e+00 6.8035329335e-05 1.5207166014e+00 -2.6339584175e+00 1.5207166014e+00 2.6339584175e+00 
50500 5.1701955644e+00 6.7961562649e-05 1.5207166014e+00 -2.6339584175e+00 1.5207166014e+00 2.6339584175e+00 
50600 5.1701955676e+00 6.7886186726e-05 1.5207166014e+00 -2.6339584175e+00 1.5207166014e+00 2.6339584175e+00 
50700 5.1701955707e+00 6.7809249393e-05 1.5207166014e+00 -2.6339584175e+00 1.5207166014e+00 2.6339584175e+00 
50800 5.1701955737e+00 6.7730798005e-05 1.5207166014e+00 -2.6339584175e+00 1.5207166014e+00 2.6339584175e+00 
50900 5.1701955767e+00 6.7650879426e-05 1.5207166014e+00 -2.6339584175e+00 1.5207166014e+00 2.6339584175e+00 
51000 5.1701955797e+00 6.7569540024e-05 1.5207166014e+00 -2.6339584175e+00 1.5207166014e+00 2.6339584175e+00 
51100 5.1701955826e+00 6.7486825658e-05 1.5207166014e+00 -2.6339584175e+00 1.5207166014e+00 2.6339584175e+00 
51200 5.1701955854e+00 6.7402781665e-05 1.5207166014e+00 -2.6339584175e+00 1.5207166014e+00 2.6339584175e+00 
51300 5.1701955882e+00 6.7317452854e-05 1.5207166014e+00 -2.6339584175e+00 1.5207166014e+00 2.6339584175e+00 
51400 5.1701955910e+00 6.7230883495e-05 1.5207166014e+00 -2.6339584175e+00 1.5207166014e+00 2.6339584175e+00 
51500 5.1701955937e+00 6.7143117308e-05 1.5207166014e+00 -2.6339584175e+00 1.5207166014e+00 2.6339584175e+00 
51600 5.1701955964e+00 6.7054197459e-05 1.5207166014e+00 -2.6339584175e+00 1.5207166014e+00 2.6339584175e+00 
51700 5.1701955990e+00 6.6964166553e-05 1.5207166014e+00 -2.6339584175e+00 1.5207166014e+00 2.6339584175e+00 
51800 5.1701956016e+00 6.6873066622e-05 1.5207166014e+00 -2.6339584175e+00 1.5207166014e+00 2.6339584175e+00 
51900 5.1701956041e+00 6.6780939125e-05 1.5207166014e+00 -2.6339584175e+00 1.5207166014e+00 2.6339584175e+00 
52000 5.1701956066e+00 6.6687824937e-05 1.5207166014e+00 -2.6339584175e+00 1.5207166014e+00 2.6339584175e+00 
52100 5.1701956090e+00 6.6593764348e-05 1.5207166014e+00 -2.6339584175e+00 1.5207166014e+00 2.6339584175e+00 
52200 5.1701956114e+00 6.6498797055e-05 1.5207166014e+00 -2.6339584175e+00 1.5207166014e+00 2.6339584175e+00 
52300 5.1701956138e+00 6.6402962161e-05 1.5207166014e+00 -2.6339584175e+00 1.5207166014e+00 2.6339584175e+00 
52400 5.1701956161e+00 6.6306298169e-05 1.5207166014e+00 -2.6339584175e+00 1.5207166014e+00 2.6339584175e+00 
52500 5.1701956184e+00 6.6208842981e-05 1.5207166014e+00 -2.6339584175e+00 1.5207166014e+00 2.6339584175e+00 
52600 5.1701956207e+00 6.6110633892e-05 1.5207166014e+00 -2.6339584175e+00 1.5207166014e+00 2.6339584175e+00 
52700 5.1701956229e+00 6.6011707592e-05 1.5207166014e+00 -2.6339584175e+00 1.5207166014e+00 2.6339584175e+00 
52800 5.1701956250e+00 6.5912100163e-05 1.5207166014e+00 -2.6339584175e+00 1.5207166014e+00 2.6339584175e+00 
52900 5.1701956272e+00 6.5811847075e-05 1.5207166014e+00 -2.6339584175e+00 1.5207166014e+00 2.6339584175e+00 
53000 5.1701956293e+00 6.5710983188e-05 1.5207166014e+00 -2.6339584175e+00 1.5207166014e+00 2.6339584175e+00 
53100 5.1701956314e+00 6.5609542753e-05 1.5207166014e+00 -2.6339584175e+00 1.5207166014e+00 2.6339584175e+00 
53200 5.1701956334e+00 6.5507559406e-05 1.5207166014e+00 -2.6339584175e+00 1.5207166014e+00 2.6339584175e+00 
53300 5.1701956354e+00 6.5405066174e-05 1.5207166014e+00 -2.6339584175e+00 1.5207166014e+00 2.6339584175e+00 
53400 5.1701956373e+00 6.5302095476e-05 1.5207166014e+00 -2.6339584175e+00 1.5207166014e+00 2.6339584175e+00 
53500 5.1701956393e+00 6.5198679119e-05 1.5207166014e+00 -2.6339584175e+00 1.5207166014e+00 2.6339584175e+00 
53600 5.1701956412e+00 6.5094848304e-05 1.5207166014e+00 -2.6339584175e+00 1.5207166014e+00 2.6339584175e+00 
53700 5.1701956431e+00 6.4990633627e-05 1.5207166014e+00 -2.6339584175e+00 1.5207166014e+00 2.6339584175e+00 
53800 5.1701956449e+00 6.4886065080e-05 1.5207166014e+00 -2.6339584175e+00 1.5207166014e+00 2.6339584175e+00 
53900 5.1701956467e+00 6.4781172051e-05 1.5207166014e+00 -2.6339584175e+00 1.5207166014e+00 2.6339584175e+00 
54000 5.1701956485e+00 6.4675983336e-05 1.5207166014e+00 -2.6339584175e+00 1.5207166014e+00 2.6339584175e+00 
54100 5.1701956502e+00 6.4570527131e-05 1.5207166014e+00 -2.6339584175e+00 1.5207166014e+00 2.6339584175e+00 
54200 5.1701956520e+00 6.4464831040e-05 1.5207166014e+00 -2.6339584175e+00 1.5207166014e+00 2.6339584175e+00 
54300 5.1701956536e+00 6.4358922081e-05 1.5207166014e+00 -2.6339584175e+00 1.5207166014e+00 2.6339584175e+00 
54400 5.1701956553e+00 6.4252826685e-05 1.5207166014e+00 -2.6339584175e+00 1.5207166014e+00 2.6339584175e+00 
54500 5.1701956569e+00 6.4146570704e-05 1.5207166014e+00 -2.6339584175e+00 1.5207166014e+00 2.6339584175e+00 
54600 5.1701956586e+00 6.4040179414e-05 1.5207166014e+00 -2.6339584175e+00 1.5207166014e+00 2.6339584175e+00 
54700 5.1701956601e+00 6.3933677519e-05 1.5207166014e+00 -2.6339584175e+00 1.5207166014e+00 2.6339584175e+00 
54800 5.1701956617e+00 6.3827089154e-05 1.5207166014e+00 -2.6339584175e+00 1.5207166014e+00 2.6339584175e+00 
54900 5.1701956632e+00 6.3720437895e-05 1.5207166014e+00 -2.6339584175e+00 1.5207166014e+00 2.6339584175e+00 
55000 5.1701956647e+00 6.3613746760e-05 1.5207166014e+00 -2.6339584175e+00 1.5207166014e+00 2.6339584175e+00 
55100 5.1701956662e+00 6.3507038213e-05 1.5207166014e+00 -2.6339584175e+00 1.5207166014e+00 2.6339584175e+00 
55200 5.1701956677e+00 6.3400334176e-05 1.5207166014e+00 -2.6339584175e+00 1.5207166014e+00 2.6339584175e+00 
55300 5.1701956691e+00 6.3293656027e-05 1.5207166014e+00 -2.6339584175e+00 1.5207166014e+00 2.6339584175e+00 
55400 5.1701956705e+00 6.3187024611e-05 1.5207166014e+00 -2.6339584175e+00 1.5207166014e+00 2.6339584175e+00 
55500 5.1701956719e+00 6.3080460242e-05 1.5207166014e+00 -2.6339584175e+00 1.5207166014e+00 2.6339584175e+00 
55600 5.1701956733e+00 6.2973982714e-05 1.5207166014e+00 -2.6339584175e+00 1.5207166014e+00 2.6339584175e+00 
55700 5.1701956746e+00 6.2867611301e-05 1.5207166014e+00 -2.6339584175e+00 1.5207166014e+00 2.6339584175e+00 
55800 5.1701956760e+00 6.2761364769e-05 1.5207166014e+00 -2.6339584175e+00 1.5207166014e+00 2.6339584175e+00 
55900 5.1701956773e+00 6.2655261378e-05 1.5207166014e+00 -2.6339584175e+00 1.5207166014e+00 2.6339584175e+00 
56000 5.1701956786e+00 6.2549318892e-05 1.5207166014e+00 -2.6339584175e+00 1.5207166014e+00 2.6339584175e+00 
56100 5.1701956798e+00 6.2443554582e-05 1.5207166014e+00 -2.6339584175e+00 1.5207166014e+00 2.6339584175e+00 
56200 5.1701956811e+00 6.2337985234e-05 1.5207166014e+00 -2.6339584175e+00 1.5207166014e+00 2.6339584175e+00 
56300 5.1701956823e+00 6.2232627157e-05 1.5207166014e+00 -2.6339584175e+00 1.5207166014e+00 2.6339584175e+00 
56400 5.1701956835e+00 6.2127496190e-05 1.5207166014e+00 -2.6339584175e+00 1.5207166014e+00 2.6339584175e+00 
56500 5.1701956847e+00 6.2022607708e-05 1.5207166014e+00 -2.6339584175e+00 1.5207166014e+00 2.6339584175e+00 
56600 5.1701956858e+00 6.1917976622e-05 1.5207166014e+00 -2.6339584175e+00 1.5207166014e+00 2.6339584175e+00 
56700 5.1701956870e+00 6.1813617400e-05 1.5207166014e+00 -2.6339584175e+00 1.5207166014e+00 2.6339584175e+00 
56800 5.1701956881e+00 6.1709544063e-05 1.5207166014e+00 -2.6339584175e+00 1.5207166014e+00 2.6339584175e+00 
56900 5.1701956892e+00 6.1605770195e-05 1.5207166014e+00 -2.6339584175e+00 1.5207166014e+00 2.6339584175e+00 
57000 5.1701956903e+00 6.1502308951e-05 1.5207166014e+00 -2.6339584175e+00 1.5207166014e+00 2.6339584175e+00 
57100 5.1701956914e+00 6.1399173061e-05 1.5207166014e+00 -2.6339584175e+00 1.5207166014e+00 2.6339584175e+00 
57200 5.1701956924e+00 6.1296374841e-05 1.5207166014e+00 -2.6339584175e+00 1.5207166014e+00 2.6339584175e+00 
57300 5.1701956935e+00 6.1193926199e-05 1.5207166014e+00 -2.6339584175e+00 1.5207166014e+00 2.6339584175e+00 
57400 5.1701956945e+00 6.1091838638e-05 1.5207166014e+00 -2.6339584175e+00 1.5207166014e+00 2.6339584175e+00 
57500 5.1701956955e+00 6.0990123270e-05 1.5207166014e+00 -2.6339584175e+00 1.5207166014e+00 2.6339584175e+00 
57600 5.1701956965e+00 6.0888790815e-05 1.5207166014e+00 -2.6339584175e+00 1.5207166014e+00 2.6339584175e+00 
57700 5.1701956975e+00 6.0787851616e-05 1.5207166014e+00 -2.6339584175e+00 1.5207166014e+00 2.6339584175e+00 
57800 5.1701956984e+00 6.0687315639e-05 1.5207166014e+00 -2.6339584175e+00 1.5207166014e+00 2.6339584175e+00 
57900 5.1701956994e+00 6.0587192484e-05 1.5207166014e+00 -2.6339584175e+00 1.5207166014e+00 2.6339584175e+00 
58000 5.1701957003e+00 6.0487491391e-05 1.5207166014e+00 -2.6339584175e+00 1.5207166014e+00 2.6339584175e+00 
58100 5.1701957012e+00 6.0388221249e-05 1.5207166014e+00 -2.6339584175e+00 1.5207166014e+00 2.6339584175e+00 
58200 5.1701957021e+00 6.0289390595e-05 1.5207166014e+00 -2.6339584175e+00 1.5207166014e+00 2.6339584175e+00 
58300 5.1701957030e+00 6.0191007632e-05 1.5207166014e+00 -2.6339584175e+00 1.5207166014e+00 2.6339584175e+00 
58400 5.1701957039e+00 6.0093080228e-05 1.5207166014e+00 -2.6339584175e+00 1.5207166014e+00 2.6339584175e+00 
58500 5.1701957047e+00 5.9995615925e-05 1.5207166014e+00 -2.6339584175e+00 1.5207166014e+00 2.6339584175e+00 
58600 5.1701957056e+00 5.9898621944e-05 1.5207166014e+00 -2.6339584175e+00 1.5207166014e+00 2.6339584175e+00 
58700 5.1701957064e+00 5.9802105196e-05 1.5207166014e+00 -2.6339584175e+00 1.5207166014e+00 2.6339584175e+00 
58800 5.1701957072e+00 5.9706072284e-05 1.5207166014e+00 -2.6339584175e+00 1.5207166014e+00 2.6339584175e+00 
58900 5.1701957081e+00 5.9610529513e-05 1.5207166014e+00 -2.6339584175e+00 1.5207166014e+00 2.6339584175e+00 
59000 5.1701957088e+00 5.9515482892e-05 1.5207166014e+00 -2.6339584175e+00 1.5207166014e+00 2.6339584175e+00 
59100 5.1701957096e+00 5.9420938146e-05 1.5207166014e+00 -2.6339584175e+00 1.5207166014e+00 2.6339584175e+00 
59200 5.1701957104e+00 5.9326900717e-05 1.5207166014e+00 -2.6339584175e+00 1.5207166014e+00 2.6339584175e+00 
59300 5.1701957112e+00 5.9233375776e-05 1.5207166014e+00 -2.6339584175e+00 1.5207166014e+00 2.6339584175e+00 
59400 5.1701957119e+00 5.9140368221e-05 1.5207166014e+00 -2.6339584175e+00 1.5207166014e+00 2.6339584175e+00 
59500 5.1701957126e+00 5.9047882694e-05 1.5207166014e+00 -2.6339584175e+00 1.5207166014e+00 2.6339584175e+00 
59600 5.1701957134e+00 5.8955923577e-05 1.5207166014e+00 -2.6339584175e+00 1.5207166014e+00 2.6339584175e+00 
59700 5.1701957141e+00 5.8864495003e-05 1.5207166014e+00 -2.6339584175e+00 1.5207166014e+00 2.6339584175e+00 
59800 5.1701957148e+00 5.8773600863e-05 1.5207166014e+00 -2.6339584175e+00 1.5207166014e+00 2.6339584175e+00 
59900 5.1701957155e+00 5.8683244807e-05 1.5207166014e+00 -2.6339584175e+00 1.5207166014e+00 2.6339584175e+00 
60000 5.1701957162e+00 5.8593430255e-05 1.5207166014e+00 -2.6339584175e+00 1.5207166014e+00 2.6339584175e+00 
60100 5.1701957168e+00 5.8504160399e-05 1.5207166014e+00 -2.6339584175e+00 1.5207166014e+00 2.6339584175e+00 
60200 5.1701957175e+00 5.8415438210e-05 1.5207166014e+00 -2.6339584175e+00 1.5207166014e+00 2.6339584175e+00 
60300 5.1701957181e+00 5.8327266446e-05 1.5207166014e+00 -2.6339584175e+00 1.5207166014e+00 2.6339584175e+00 
60400 5.1701957188e+00 5.8239647651e-05 1.5207166014e+00 -2.6339584175e+00 1.5207166014e+00 2.6339584175e+00 
60500 5.1701957194e+00 5.8152584168e-05 1.5207166014e+00 -2.6339584175e+00 1.5207166014e+00 2.6339584175e+00 
60600 5.1701957200e+00 5.8066078139e-05 1.5207166014e+00 -2.6339584175e+00 1.5207166014e+00 2.6339584175e+00 
60700 5.1701957206e+00 5.7980131513e-05 1.5207166014e+00 -2.6339584175e+00 1.5207166014e+00 2.6339584175e+00 
60800 5.1701957212e+00 5.7894746047e-05 1.5207166014e+00 -2.6339584175e+00 1.5207166014e+00 2.6339584175e+00 
60900 5.1701957218e+00 5.7809923318e-05 1.5207166014e+00 -2.6339584175e+00 1.5207166014e+00 2.6339584175e+00 
61000 5.1701957224e+00 5.7725664723e-05 1.5207166014e+00 -2.6339584175e+00 1.5207166014e+00 2.6339584175e+00 
61100 5.1701957230e+00 5.7641971484e-05 1.5207166014e+00 -2.6339584175e+00 1.5207166014e+00 2.6339584175e+00 
61200 5.1701957236e+00 5.7558844654e-05 1.5207166014e+00 -2.6339584175e+00 1.5207166014e+00 2.6339584175e+00 
61300 5.1701957241e+00 5.7476285123e-05 1.5207166014e+00 -2.6339584175e+00 1.5207166014e+00 2.6339584175e+00 
61400 5.1701957247e+00 5.7394293620e-05 1.5207166014e+00 -2.6339584175e+00 1.5207166014e+00 2.6339584175e+00 
61500 5.1701957252e+00 5.7312870719e-05 1.5207166014e+00 -2.6339584175e+00 1.5207166014e+00 2.6339584175e+00 
61600 5.1701957257e+00 5.7232016843e-05 1.5207166014e+00 -2.6339584175e+00 1.5207166014e+00 2.6339584175e+00 
61700 5.1701957263e+00 5.7151732269e-05 1.5207166014e+00 -2.6339584175e+00 1.5207166014e+00 2.6339584175e+00 
61800 5.1701957268e+00 5.7072017133e-05 1.5207166014e+00 -2.6339584175e+00 1.5207166014e+00 2.6339584175e+00 
61900 5.1701957273e+00 5.6992871431e-05 1.5207166014e+00 -2.6339584175e+00 1.5207166014e+00 2.6339584175e+00 
62000 5.1701957278e+00 5.6914295029e-05 1.5207166014e+00 -2.6339584175e+00 1.5207166014e+00 2.6339584175e+00 
62100 5.1701957283e+00 5.6836287659e-05 1.5207166014e+00 -2.6339584175e+00 1.5207166014e+00 2.6339584175e+00 
62200 5.1701957288e+00 5.6758848931e-05 1.5207166014e+00 -2.6339584175e+00 1.5207166014e+00 2.6339584175e+00 
62300 5.1701957292e+00 5.6681978333e-05 1.5207166014e+00 -2.6339584175e+00 1.5207166014e+00 2.6339584175e+00 
62400 5.1701957297e+00 5.6605675234e-05 1.5207166014e+00 -2.6339584175e+00 1.5207166014e+00 2.6339584175e+00 
62500 5.1701957302e+00 5.6529938890e-05 1.5207166014e+00 -2.6339584175e+00 1.5207166014e+00 2.6339584175e+00 
62600 5.1701957306e+00 5.6454768446e-05 1.5207166014e+00 -2.6339584175e+00 1.5207166014e+00 2.6339584175e+00 
62700 5.1701957311e+00 5.6380162942e-05 1.5207166014e+00 -2.6339584175e+00 1.5207166014e+00 2.6339584175e+00 
62800 5.1701957315e+00 5.6306121314e-05 1.5207166014e+00 -2.6339584175e+00 1.5207166014e+00 2.6339584175e+00 
62900 5.1701957320e+00 5.6232642398e-05 1.5207166014e+00 -2.6339584175e+00 1.5207166014e+00 2.6339584175e+00 
63000 5.1701957324e+00 5.6159724936e-05 1.5207166014e+00 -2.6339584175e+00 1.5207166014e+00 2.6339584175e+00 
63100 5.1701957328e+00 5.6087367573e-05 1.5207166014e+00 -2.6339584175e+00 1.5207166014e+00 2.6339584175e+00 
63200 5.1701957332e+00 5.6015568868e-05 1.5207166014e+00 -2.6339584175e+00 1.5207166014e+00 2.6339584175e+00 
63300 5.1701957336e+00 5.5944327292e-05 1.5207166014e+00 -2.6339584175e+00 1.5207166014e+00 2.6339584175e+00 
63400 5.1701957340e+00 5.5873641236e-05 1.5207166014e+00 -2.6339584175e+00 1.5207166014e+00 2.6339584175e+00 
63500 5.1701957344e+00 5.5803509004e-05 1.5207166014e+00 -2.6339584175e+00 1.5207166014e+00 2.6339584175e+00 
63600 5.1701957348e+00 5.5733928829e-05 1.5207166014e+00 -2.6339584175e+00 1.5207166014e+00 2.6339584175e+00 
63700 5.1701957352e+00 5.5664898867e-05 1.5207166014e+00 -2.6339584175e+00 1.5207166014e+00 2.6339584175e+00 
63800 5.1701957356e+00 5.5596417202e-05 1.5207166014e+00 -2.6339584175e+00 1.5207166014e+00 2.6339584175e+00 
63900 5.1701957360e+00 5.5528481852e-05 1.5207166014e+00 -2.6339584175e+00 1.5207166014e+00 2.6339584175e+00 
64000 5.1701957364e+00 5.5461090765e-05 1.5207166014e+00 -2.6339584175e+00 1.5207166014e+00 2.6339584175e+00 
64100 5.1701957367e+00 5.5394241827e-05 1.5207166014e+00 -2.6339584175e+00 1.5207166014e+00 2.6339584175e+00 
64200 5.1701957371e+00 5.5327932865e-05 1.5207166014e+00 -2.6339584175e+00 1.5207166014e+00 2.6339584175e+00 
64300 5.1701957374e+00 5.5262161646e-05 1.5207166014e+00 -2.6339584175e+00 1.5207166014e+00 2.6339584175e+00 
64400 5.1701957378e+00 5.5196925880e-05 1.5207166014e+00 -2.6339584175e+00 1.5207166014e+00 2.6339584175e+00 
64500 5.1701957381e+00 5.5132223226e-05 1.5207166014e+00 -2.6339584175e+00 1.5207166014e+00 2.6339584175e+00 
64600 5.1701957385e+00 5.5068051290e-05 1.5207166014e+00 -2.6339584175e+00 1.5207166014e+00 2.6339584175e+00 
64700 5.1701957388e+00 5.5004407630e-05 1.5207166014e+00 -2.6339584175e+00 1.5207166014e+00 2.6339584175e+00 
64800 5.1701957391e+00 5.4941289756e-05 1.5207166014e+00 -2.6339584175e+00 1.5207166014e+00 2.6339584175e+00 
64900 5.1701957395e+00 5.4878695135e-05 1.5207166014e+00 -2.6339584175e+00 1.5207166014e+00 2.6339584175e+00 
65000 5.1701957398e+00 5.4816621191e-05 1.5207166014e+00 -2.6339584175e+00 1.5207166014e+00 2.6339584175e+00 
65100 5.1701957401e+00 5.4755065306e-05 1.5207166014e+00 -2.6339584175e+00 1.5207166014e+00 2.6339584175e+00 
65200 5.1701957404e+00 5.4694024827e-05 1.5207166014e+00 -2.6339584175e+00 1.5207166014e+00 2.6339584175e+00 
65300 5.1701957407e+00 5.4633497060e-05 1.5207166014e+00 -2.6339584175e+00 1.5207166014e+00 2.6339584175e+00 
65400 5.1701957410e+00 5.4573479281e-05 1.5207166014e+00 -2.6339584175e+00 1.5207166014e+00 2.6339584175e+00 
65500 5.1701957413e+00 5.4513968730e-05 1.5207166014e+00 -2.6339584175e+00 1.5207166014e+00 2.6339584175e+00 
65600 5.1701957416e+00 5.4454962616e-05 1.5207166014e+00 -2.6339584175e+00 1.5207166014e+00 2.6339584175e+00 
65700 5.1701957419e+00 5.4396458121e-05 1.5207166014e+00 -2.6339584175e+00 1.5207166014e+00 2.6339584175e+00 
65800 5.1701957422e+00 5.4338452398e-05 1.5207166014e+00 -2.6339584175e+00 1.5207166014e+00 2.6339584175e+00 
65900 5.1701957424e+00 5.4280942572e-05 1.5207166014e+00 -2.6339584175e+00 1.5207166014e+00 2.6339584175e+00 
66000 5.1701957427e+00 5.4223925749e-05 1.5207166014e+00 -2.6339584175e+00 1.5207166014e+00 2.6339584175e+00 
66100 5.1701957430e+00 5.4167399007e-05 1.5207166014e+00 -2.6339584175e+00 1.5207166014e+00 2.6339584175e+00 
66200 5.1701957433e+00 5.4111359405e-05 1.5207166014e+00 -2.6339584175e+00 1.5207166014e+00 2.6339584175e+00 
66300 5.1701957435e+00 5.4055803982e-05 1.5207166014e+00 -2.6339584175e+00 1.5207166014e+00 2.6339584175e+00 
66400 5.1701957438e+00 5.4000729756e-05 1.5207166014e+00 -2.6339584175e+00 1.5207166014e+00 2.6339584175e+00 
66500 5.1701957440e+00 5.3946133733e-05 1.5207166014e+00 -2.6339584175e+00 1.5207166014e+00 2.6339584175e+00 
66600 5.1701957443e+00 5.3892012900e-05 1.5207166014e+00 -2.6339584175e+00 1.5207166014e+00 2.6339584175e+00 
66700 5.1701957445e+00 5.3838364228e-05 1.5207166014e+00 -2.6339584175e+00 1.5207166014e+00 2.6339584175e+00 
66800 5.1701957448e+00 5.3785184679e-05 1.5207166014e+00 -2.6339584175e+00 1.5207166014e+00 2.6339584175e+00 
66900 5.1701957450e+00 5.3732471199e-05 1.5207166014e+00 -2.6339584175e+00 1.5207166014e+00 2.6339584175e+00 
67000 5.1701957453e+00 5.3680220726e-05 1.5207166014e+00 -2.6339584175e+00 1.5207166014e+00 2.6339584175e+00 
67100 5.1701957455e+00 5.3628430186e-05 1.5207166014e+00 -2.6339584175e+00 1.5207166014e+00 2.6339584175e+00 
67200 5.1701957457e+00 5.3577096499e-05 1.5207166014e+00 -2.6339584175e+00 1.5207166014e+00 2.6339584175e+00 
67300 5.1701957460e+00 5.3526216576e-05 1.5207166014e+00 -2.6339584175e+00 1.5207166014e+00 2.6339584175e+00 
67400 5.1701957462e+00 5.3475787320e-05 1.5207166014e+00 -2.6339584175e+00 1.5207166014e+00 2.6339584175e+00 
67500 5.1701957464e+00 5.3425805633e-05 1.5207166014e+00 -2.6339584175e+00 1.5207166014e+00 2.6339584175e+00 
67600 5.1701957466e+00 5.3376268407e-05 1.5207166014e+00 -2.6339584175e+00 1.5207166014e+00 2.6339584175e+00 
67700 5.1701957468e+00 5.3327172534e-05 1.5207166014e+00 -2.6339584175e+00 1.5207166014e+00 2.6339584175e+00 
67800 5.1701957470e+00 5.3278514904e-05 1.5207166014e+00 -2.6339584175e+00 1.5207166014e+00 2.6339584175e+00 
67900 5.1701957473e+00 5.3230292401e-05 1.5207166014e+00 -2.6339584175e+00 1.5207166014e+00 2.6339584175e+00 
68000 5.1701957475e+00 5.3182501914e-05 1.5207166014e+00 -2.6339584175e+00 1.5207166014e+00 2.6339584175e+00 
68100 5.1701957477e+00 5.3135140326e-05 1.5207166014e+00 -2.6339584175e+00 1.5207166014e+00 2.6339584175e+00 
68200 5.1701957479e+00 5.3088204524e-05 1.5207166014e+00 -2.6339584175e+00 1.5207166014e+00 2.6339584175e+00 
68300 5.1701957481e+00 5.3041691396e-05 1.5207166014e+00 -2.6339584175e+00 1.5207166014e+00 2.6339584175e+00 
68400 5.1701957483e+00 5.2995597832e-05 1.5207166014e+00 -2.6339584175e+00 1.5207166014e+00 2.6339584175e+00 
68500 5.1701957485e+00 5.2949920725e-05 1.5207166014e+00 -2.6339584175e+00 1.5207166014e+00 2.6339584175e+00 
68600 5.1701957486e+00 5.2904656971e-05 1.5207166014e+00 -2.6339584175e+00 1.5207166014e+00 2.6339584175e+00 
68700 5.1701957488e+00 5.2859803471e-05 1.5207166014e+00 -2.6339584175e+00 1.5207166014e+00 2.6339584175e+00 
68800 5.1701957490e+00 5.2815357131e-05 1.5207166014e+00 -2.6339584175e+00 1.5207166014e+00 2.6339584175e+00 
68900 5.1701957492e+00 5.2771314861e-05 1.5207166014e+00 -2.6339584175e+00 1.5207166014e+00 2.6339584175e+00 
69000 5.1701957494e+00 5.2727673577e-05 1.5207166014e+00 -2.6339584175e+00 1.5207166014e+00 2.6339584175e+00 
69100 5.1701957495e+00 5.2684430205e-05 1.5207166014e+00 -2.6339584175e+00 1.5207166014e+00 2.6339584175e+00 
69200 5.1701957497e+00 5.2641581675e-05 1.5207166014e+00 -2.6339584175e+00 1.5207166014e+00 2.6339584175e+00 
69300 5.1701957499e+00 5.2599124925e-05 1.5207166014e+00 -2.6339584175e+00 1.5207166014e+00 2.6339584175e+00 
69400 5.1701957501e+00 5.2557056902e-05 1.5207166014e+00 -2.6339584175e+00 1.5207166014e+00 2.6339584175e+00 
69500 5.1701957502e+00 5.2515374562e-05 1.5207166014e+00 -2.6339584175e+00 1.5207166014e+00 2.6339584175e+00 
69600 5.1701957504e+00 5.2474074869e-05 1.5207166014e+00 -2.6339584175e+00 1.5207166014e+00 2.6339584175e+00 
69700 5.1701957505e+00 5.2433154798e-05 1.5207166014e+00 -2.6339584175e+00 1.5207166014e+00 2.6339584175e+00 
69800 5.1701957507e+00 5.2392611332e-05 1.5207166014e+00 -2.6339584175e+00 1.5207166014e+00 2.6339584175e+00 
69900 5.1701957509e+00 5.2352441467e-05 1.5207166014e+00 -2.6339584175e+00 1.5207166014e+00 2.6339584175e+00 
70000 5.1701957510e+00 5.2312642208e-05 1.5207166014e+00 -2.6339584175e+00 1.5207166014e+00 2.6339584175e+00 
70100 5.1701957512e+00 5.2273210572e-05 1.5207166014e+00 -2.6339584175e+00 1.5207166014e+00 2.6339584175e+00 
70200 5.1701957513e+00 5.2234143587e-05 1.5207166014e+00 -2.6339584175e+00 1.5207166014e+00 2.6339584175e+00 
70300 5.1701957515e+00 5.2195438292e-05 1.5207166014e+00 -2.6339584175e+00 1.5207166014e+00 2.6339584175e+00 
70400 5.1701957516e+00 5.2157091742e-05 1.5207166014e+00 -2.6339584175e+00 1.5207166014e+00 2.6339584175e+00 
70500 5.1701957518e+00 5.2119101001e-05 1.5207166014e+00 -2.6339584175e+00 1.5207166014e+00 2.6339584175e+00 
70600 5.1701957519e+00 5.2081463147e-05 1.5207166014e+00 -2.6339584175e+00 1.5207166014e+00 2.6339584175e+00 
70700 5.1701957520e+00 5.2044175270e-05 1.5207166014e+00 -2.6339584175e+00 1.5207166014e+00 2.6339584175e+00 
70800 5.1701957522e+00 5.2007234476e-05 1.5207166014e+00 -2.6339584175e+00 1.5207166014e+00 2.6339584175e+00 
70900 5.1701957523e+00 5.1970637883e-05 1.5207166014e+00 -2.6339584175e+00 1.5207166014e+00 2.6339584175e+00 
71000 5.1701957524e+00 5.1934382623e-05 1.5207166014e+00 -2.6339584175e+00 1.5207166014e+00 2.6339584175e+00 
71100 5.1701957526e+00 5.1898465841e-05 1.5207166014e+00 -2.6339584175e+00 1.5207166014e+00 2.6339584175e+00 
71200 5.1701957527e+00 5.1862884700e-05 1.5207166014e+00 -2.6339584175e+00 1.5207166014e+00 2.6339584175e+00 
71300 5.1701957528e+00 5.1827636373e-05 1.5207166014e+00 -2.6339584175e+00 1.5207166014e+00 2.6339584175e+00 
71400 5.1701957530e+00 5.1792718052e-05 1.5207166014e+00 -2.6339584175e+00 1.5207166014e+00 2.6339584175e+00 
71500 5.1701957531e+00 5.1758126940e-05 1.5207166014e+00 -2.6339584175e+00 1.5207166014e+00 2.6339584175e+00 
71600 5.1701957532e+00 5.1723860259e-05 1.5207166014e+00 -2.6339584175e+00 1.5207166014e+00 2.6339584175e+00 
71700 5.1701957533e+00 5.1689915243e-05 1.5207166014e+00 -2.6339584175e+00 1.5207166014e+00 2.6339584175e+00 
71800 5.1701957535e+00 5.1656289145e-05 1.5207166014e+00 -2.6339584175e+00 1.5207166014e+00 2.6339584175e+00 
71900 5.1701957536e+00 5.1622979230e-05 1.5207166014e+00 -2.6339584175e+00 1.5207166014e+00 2.6339584175e+00 
72000 5.1701957537e+00 5.1589982780e-05 1.5207166014e+00 -2.6339584175e+00 1.5207166014e+00 2.6339584175e+00 
72100 5.1701957538e+00 5.1557297095e-05 1.5207166014e+00 -2.6339584175e+00 1.5207166014e+00 2.6339584175e+00 
72200 5.1701957539e+00 5.1524919489e-05 1.5207166014e+00 -2.6339584175e+00 1.5207166014e+00 2.6339584175e+00 
72300 5.1701957540e+00 5.1492847291e-05 1.5207166014e+00 -2.6339584175e+00 1.5207166014e+00 2.6339584175e+00 
72400 5.1701957541e+00 5.1461077849e-05 1.5207166014e+00 -2.6339584175e+00 1.5207166014e+00 2.6339584175e+00 
72500 5.1701957543e+00 5.1429608525e-05 1.5207166014e+00 -2.6339584175e+00 1.5207166014e+00 2.6339584175e+00 
72600 5.1701957544e+00 5.1398436700e-05 1.5207166014e+00 -2.6339584175e+00 1.5207166014e+00 2.6339584175e+00 
72700 5.1701957545e+00 5.1367559769e-05 1.5207166014e+00 -2.6339584175e+00 1.5207166014e+00 2.6339584175e+00 
72800 5.1701957546e+00 5.1336975144e-05 1.5207166014e+00 -2.6339584175e+00 1.5207166014e+00 2.6339584175e+00 
72900 5.1701957547e+00 5.1306680255e-05 1.5207166014e+00 -2.6339584175e+00 1.5207166014e+00 2.6339584175e+00 
73000 5.1701957548e+00 5.1276672547e-05 1.5207166014e+00 -2.6339584175e+00 1.5207166014e+00 2.6339584175e+00 
73100 5.1701957549e+00 5.1246949484e-05 1.5207166014e+00 -2.6339584175e+00 1.5207166014e+00 2.6339584175e+00 
73200 5.1701957550e+00 5.1217508544e-05 1.5207166014e+00 -2.6339584175e+00 1.5207166014e+00 2.6339584175e+00 
73300 5.1701957551e+00 5.1188347225e-05 1.5207166014e+00 -2.6339584175e+00 1.5207166014e+00 2.6339584175e+00 
73400 5.1701957552e+00 5.1159463039e-05 1.5207166014e+00 -2.6339584175e+00 1.5207166014e+00 2.6339584175e+00 
73500 5.1701957553e+00 5.1130853516e-05 1.5207166014e+00 -2.6339584175e+00 1.5207166014e+00 2.6339584175e+00 
73600 5.1701957553e+00 5.1102516202e-05 1.5207166014e+00 -2.6339584175e+00 1.5207166014e+00 2.6339584175e+00 
73700 5.1701957554e+00 5.1074448665e-05 1.5207166014e+00 -2.6339584175e+00 1.5207166014e+00 2.6339584175e+00 
73800 5.1701957555e+00 5.1046648482e-05 1.5207166014e+00 -2.6339584175e+00 1.5207166014e+00 2.6339584175e+00 
73900 5.1701957556e+00 5.1019113252e-05 1.5207166014e+00 -2.6339584175e+00 1.5207166014e+00 2.6339584175e+00 
74000 5.1701957557e+00 5.0991840590e-05 1.5207166014e+00 -2.6339584175e+00 1.5207166014e+00 2.6339584175e+00 
74100 5.1701957558e+00 5.0964828129e-05 1.5207166014e+00 -2.6339584175e+00 1.5207166014e+00 2.6339584175e+00 
74200 5.1701957559e+00 5.0938073517e-05 1.5207166014e+00 -2.6339584175e+00 1.5207166014e+00 2.6339584175e+00 
74300 5.1701957560e+00 5.0911574420e-05 1.5207166014e+00 -2.6339584175e+00 1.5207166014e+00 2.6339584175e+00 
74400 5.1701957560e+00 5.0885328520e-05 1.5207166014e+00 -2.6339584175e+00 1.5207166014e+00 2.6339584175e+00 
74500 5.1701957561e+00 5.0859333519e-05 1.5207166014e+00 -2.6339584175e+00 1.5207166014e+00 2.6339584175e+00 
74600 5.1701957562e+00 5.0833587132e-05 1.5207166014e+00 -2.6339584175e+00 1.5207166014e+00 2.6339584175e+00 
74700 5.1701957563e+00 5.0808087094e-05 1.5207166014e+00 -2.6339584175e+00 1.5207166014e+00 2.6339584175e+00 
74800 5.1701957564e+00 5.0782831153e-05 1.5207166014e+00 -2.6339584175e+00 1.5207166014e+00 2.6339584175e+00 
74900 5.1701957564e+00 5.0757817081e-05 1.5207166014e+00 -2.6339584175e+00 1.5207166014e+00 2.6339584175e+00 
75000 5.1701957565e+00 5.0733042658e-05 1.5207166014e+00 -2.6339584175e+00 1.5207166014e+00 2.6339584175e+00 
75100 5.1701957566e+00 5.0708505688e-05 1.5207166014e+00 -2.6339584175e+00 1.5207166014e+00 2.6339584175e+00 
75200 5.1701957567e+00 5.0684203988e-05 1.5207166014e+00 -2.6339584175e+00 1.5207166014e+00 2.6339584175e+00 
75300 5.1701957567e+00 5.0660135391e-05 1.5207166014e+00 -2.6339584175e+00 1.5207166014e+00 2.6339584175e+00 
75400 5.1701957568e+00 5.0636297751e-05 1.5207166014e+00 -2.6339584175e+00 1.5207166014e+00 2.6339584175e+00 
75500 5.1701957569e+00 5.0612688934e-05 1.5207166014e+00 -2.6339584175e+00 1.5207166014e+00 2.6339584175e+00 
75600 5.1701957570e+00 5.0589306825e-05 1.5207166014e+00 -2.6339584175e+00 1.5207166014e+00 2.6339584175e+00 
75700 5.1701957570e+00 5.0566149326e-05 1.5207166014e+00 -2.6339584175e+00 1.5207166014e+00 2.6339584175e+00 
75800 5.1701957571e+00 5.0543214353e-05 1.5207166014e+00 -2.6339584175e+00 1.5207166014e+00 2.6339584175e+00 
75900 5.1701957572e+00 5.0520499841e-05 1.5207166014e+00 -2.6339584175e+00 1.5207166014e+00 2.6339584175e+00 
76000 5.1701957572e+00 5.0498003739e-05 1.5207166014e+00 -2.6339584175e+00 1.5207166014e+00 2.6339584175e+00 
76100 5.1701957573e+00 5.0475724015e-05 1.5207166014e+00 -2.6339584175e+00 1.5207166014e+00 2.6339584175e+00 
76200 5.1701957574e+00 5.0453658651e-05 1.5207166014e+00 -2.6339584175e+00 1.5207166014e+00 2.6339584175e+00 
76300 5.1701957574e+00 5.0431805647e-05 1.5207166014e+00 -2.6339584175e+00 1.5207166014e+00 2.6339584175e+00 
76400 5.1701957575e+00 5.0410163018e-05 1.5207166014e+00 -2.6339584175e+00 1.5207166014e+00 2.6339584175e+00 
76500 5.1701957576e+00 5.0388728794e-05 1.5207166014e+00 -2.6339584175e+00 1.5207166014e+00 2.6339584175e+00 
76600 5.1701957576e+00 5.0367501022e-05 1.5207166014e+00 -2.6339584175e+00 1.5207166014e+00 2.6339584175e+00 
76700 5.1701957577e+00 5.0346477768e-05 1.5207166014e+00 -2.6339584175e+00 1.5207166014e+00 2.6339584175e+00 
76800 5.1701957577e+00 5.0325657109e-05 1.5207166014e+00 -2.6339584175e+00 1.5207166014e+00 2.6339584175e+00 
76900 5.1701957578e+00 5.0305037139e-05 1.5207166014e+00 -2.6339584175e+00 1.5207166014e+00 2.6339584175e+00 
77000 5.1701957579e+00 5.0284615969e-05 1.5207166014e+00 -2.6339584175e+00 1.5207166014e+00 2.6339584175e+00 
77100 5.1701957579e+00 5.0264391726e-05 1.5207166014e+00 -2.6339584175e+00 1.5207166014e+00 2.6339584175e+00 
77200 5.1701957580e+00 5.0244362551e-05 1.5207166014e+00 -2.6339584175e+00 1.5207166014e+00 2.6339584175e+00 
77300 5.1701957580e+00 5.0224526601e-05 1.5207166014e+00 -2.6339584175e+00 1.5207166014e+00 2.6339584175e+00 
77400 5.1701957581e+00 5.0204882050e-05 1.5207166014e+00 -2.6339584175e+00 1.5207166014e+00 2.6339584175e+00 
77500 5.1701957581e+00 5.0185427083e-05 1.5207166014e+00 -2.6339584175e+00 1.5207166014e+00 2.6339584175e+00 
77600 5.1701957582e+00 5.0166159905e-05 1.5207166014e+00 -2.6339584175e+00 1.5207166014e+00 2.6339584175e+00 
77700 5.1701957582e+00 5.0147078734e-05 1.5207166014e+00 -2.6339584175e+00 1.5207166014e+00 2.6339584175e+00 
77800 5.1701957583e+00 5.0128181804e-05 1.5207166014e+00 -2.6339584175e+00 1.5207166014e+00 2.6339584175e+00 
77900 5.1701957583e+00 5.0109467361e-05 1.5207166014e+00 -2.6339584175e+00 1.5207166014e+00 2.6339584175e+00 
78000 5.1701957584e+00 5.0090933671e-05 1.5207166014e+00 -2.6339584175e+00 1.5207166014e+00 2.6339584175e+00 
78100 5.1701957584e+00 5.0072579010e-05 1.5207166014e+00 -2.6339584175e+00 1.5207166014e+00 2.6339584175e+00 
78200 5.1701957585e+00 5.0054401673e-05 1.5207166014e+00 -2.6339584175e+00 1.5207166014e+00 2.6339584175e+00 
78200 5.1701957585e+00 5.0054401673e-05 1.5207166014e+00 -2.6339584175e+00 1.5207166014e+00 2.6339584175e+00 
