# step Hamiltonian StressXX CellTensor1 CellTensor2 CellTensor3 CellTensor4 
0 5.3667673986e+00 1.5596953312e-01 2.2220832177e+00 -3.8487610317e+00 2.2220832177e+00 3.8487610317e+00 
100 5.3700084050e+00 1.5944680558e-01 2.2220832177e+00 -3.8487610317e+00 2.2220832177e+00 3.8487610317e+00 
200 5.3727649977e+00 1.6255502902e-01 2.2184964072e+00 -3.8425484937e+00 2.2184964072e+00 3.8425484937e+00 
300 5.3755238326e+00 1.6562045249e-01 2.2148337865e+00 -3.8362046486e+00 2.2148337865e+00 3.8362046486e+00 
400 5.3782741582e+00 1.6865538970e-01 2.2110959490e+00 -3.8297305241e+00 2.2110959490e+00 3.8297305241e+00 
500 5.3810021064e+00 1.7166610194e-01 2.2072832058e+00 -3.8231266592e+00 2.2072832058e+00 3.8231266592e+00 
600 5.3836921048e+00 1.7465453570e-01 2.2033957208e+00 -3.8163933376e+00 2.2033957208e+00 3.8163933376e+00 
700 5.3863278861e+00 1.7761955967e-01 2.1994336072e+00 -3.8095307556e+00 2.1994336072e+00 3.8095307556e+00 
800 5.3888932097e+00 1.8055785303e-01 2.1953969973e+00 -3.8025391420e+00 2.1953969973e+00 3.8025391420e+00 
900 5.3913723748e+00 1.8346454959e-01 2.1912860920e+00 -3.7954188453e+00 2.1912860920e+00 3.7954188453e+00 
1000 5.3937505844e+00 1.8633371029e-01 2.1871011975e+00 -3.7881703954e+00 2.1871011975e+00 3.7881703954e+00 
1100 5.3960141975e+00 1.8915867458e-01 2.1828427502e+00 -3.7807945483e+00 2.1828427502e+00 3.7807945483e+00 
1200 5.3981508993e+00 1.9193232597e-01 2.1785113348e+00 -3.7732923168e+00 2.1785113348e+00 3.7732923168e+00 
1300 5.4001498103e+00 1.9464729665e-01 2.1741076967e+00 -3.7656649919e+00 2.1741076967e+00 3.7656649919e+00 
1400 5.4020015476e+00 1.9729612843e-01 2.1696327491e+00 -3.7579141552e+00 2.1696327491e+00 3.7579141552e+00 
1500 5.4036982506e+00 1.9987140229e-01 2.1650875772e+00 -3.7500416866e+00 2.1650875772e+00 3.7500416866e+00 
1600 5.4052335782e+00 2.0236584486e-01 2.1604734398e+00 -3.7420497662e+00 2.1604734398e+00 3.7420497662e+00 
1700 5.4066026832e+00 2.0477241775e-01 2.1557917675e+00 -3.7339408719e+00 2.1557917675e+00 3.7339408719e+00 
1800 5.4078021687e+00 2.0708439354e-01 2.1510441600e+00 -3.7257177745e+00 2.1510441600e+00 3.7257177745e+00 
1900 5.4088300303e+00 2.0929542110e-01 2.1462323809e+00 -3.7173835286e+00 2.1462323809e+00 3.7173835286e+00 
2000 5.4096855853e+00 2.1139958175e-01 2.1413583516e+00 -3.7089414621e+00 2.1413583516e+00 3.7089414621e+00 
2100 5.4103693937e+00 2.1339143740e-01 2.1364241429e+00 -3.7003951621e+00 2.1364241429e+00 3.7003951621e+00 
2200 5.4108831703e+00 2.1526607102e-01 2.1314319670e+00 -3.6917484597e+00 2.1314319670e+00 3.6917484597e+00 
2300 5.4112296912e+00 2.1701911984e-01 2.1263841665e+00 -3.6830054127e+00 2.1263841665e+00 3.6830054127e+00 
2400 5.4114126965e+00 2.1864680136e-01 2.1212832042e+00 -3.6741702869e+00 2.1212832042e+00 3.6741702869e+00 
2500 5.4114367890e+00 2.2014593216e-01 2.1161316513e+00 -3.6652475355e+00 2.1161316513e+00 3.6652475355e+00 
2600 5.4113073328e+00 2.2151393965e-01 2.1109321751e+00 -3.6562417787e+00 2.1109321751e+00 3.6562417787e+00 
2700 5.4110303506e+00 2.2274886674e-01 2.1056875266e+00 -3.6471577809e+00 2.1056875266e+00 3.6471577809e+00 
2800 5.4106124227e+00 2.2384936971e-01 2.1004005271e+00 -3.6380004291e+00 2.1004005271e+00 3.6380004291e+00 
2900 5.4100605886e+00 2.2481470953e-01 2.0950740554e+00 -3.6287747096e+00 2.0950740554e+00 3.6287747096e+00 
3000 5.4093822508e+00 2.2564473694e-01 2.0897110348e+00 -3.6194856854e+00 2.0897110348e+00 3.6194856854e+00 
3100 5.4085850843e+00 2.2633987185e-01 2.0843144197e+00 -3.6101384738e+00 2.0843144197e+00 3.6101384738e+00 
3200 5.4076769503e+00 2.2690107764e-01 2.0788871831e+00 -3.6007382244e+00 2.0788871831e+00 3.6007382244e+00 
3300 5.4066658158e+00 2.2732983090e-01 2.0734323046e+00 -3.5912900975e+00 2.0734323046e+00 3.5912900975e+00 
3400 5.4055596801e+00 2.2762808740e-01 2.0679527576e+00 -3.5817992439e+00 2.0679527576e+00 3.5817992439e+00 
3500 5.4043665071e+00 2.2779824505e-01 2.0624514993e+00 -3.5722707849e+00 2.0624514993e+00 3.5722707849e+00 
3600 5.4030941652e+00 2.2784310450e-01 2.0569314589e+00 -3.5627097944e+00 2.0569314589e+00 3.5627097944e+00 
3700 5.4017503742e+00 2.2776582820e-01 2.0513955286e+00 -3.5531212820e+00 2.0513955286e+00 3.5531212820e+00 
3800 5.4003426592e+00 2.2756989866e-01 2.0458465544e+00 -3.5435101766e+00 2.0458465544e+00 3.5435101766e+00 
3900 5.3988783107e+00 2.2725907647e-01 2.0402873274e+00 -3.5338813131e+00 2.0402873274e+00 3.5338813131e+00 
4000 5.3973643525e+00 2.2683735883e-01 2.0347205770e+00 -3.5242394186e+00 2.0347205770e+00 3.5242394186e+00 
4100 5.3958075153e+00 2.2630893904e-01 2.0291489643e+00 -3.5145891022e+00 2.0291489643e+00 3.5145891022e+00 
4200 5.3942142156e+00 2.2567816745e-01 2.0235750759e+00 -3.5049348443e+00 2.0235750759e+00 3.5049348443e+00 
4300 5.3925905412e+00 2.2494951431e-01 2.0180014197e+00 -3.4952809887e+00 2.0180014197e+00 3.4952809887e+00 
4400 5.3909422408e+00 2.2412753476e-01 2.0124304207e+00 -3.4856317353e+00 2.0124304207e+00 3.4856317353e+00 
4500 5.3892747183e+00 2.2321683624e-01 2.0068644175e+00 -3.4759911349e+00 2.0068644175e+00 3.4759911349e+00 
4600 5.3875930311e+00 2.2222204851e-01 2.0013056599e+00 -3.4663630844e+00 2.0013056599e+00 3.4663630844e+00 
4700 5.3859018918e+00 2.2114779628e-01 1.9957563073e+00 -3.4567513237e+00 1.9957563073e+00 3.4567513237e+00 
4800 5.3842056725e+00 2.1999867468e-01 1.9902184270e+00 -3.4471594337e+00 1.9902184270e+00 3.4471594337e+00 
4900 5.3825084123e+00 2.1877922728e-01 1.9846939940e+00 -3.4375908351e+00 1.9846939940e+00 3.4375908351e+00 
5000 5.3808138260e+00 2.1749392687e-01 1.9791848908e+00 -3.4280487884e+00 1.9791848908e+00 3.4280487884e+00 
5100 5.3791253151e+00 2.1614715877e-01 1.9736929073e+00 -3.4185363940e+00 1.9736929073e+00 3.4185363940e+00 
5200 5.3774459796e+00 2.1474320652e-01 1.9682197424e+00 -3.4090565942e+00 1.9682197424e+00 3.4090565942e+00 
5300 5.3757786313e+00 2.1328623994e-01 1.9627670044e+00 -3.3996121750e+00 1.9627670044e+00 3.3996121750e+00 
5400 5.3741258071e+00 2.1178030522e-01 1.9573362129e+00 -3.3902057683e+00 1.9573362129e+00 3.3902057683e+00 
5500 5.3724897832e+00 2.1022931702e-01 1.9519288007e+00 -3.3808398555e+00 1.9519288007e+00 3.3808398555e+00 
5600 5.3708725898e+00 2.0863705238e-01 1.9465461150e+00 -3.3715167705e+00 1.9465461150e+00 3.3715167705e+00 
5700 5.3692760246e+00 2.0700714621e-01 1.9411894206e+00 -3.3622387036e+00 1.9411894206e+00 3.3622387036e+00 
5800 5.3677016679e+00 2.0534308817e-01 1.9358599016e+00 -3.3530077059e+00 1.9358599016e+00 3.3530077059e+00 
5900 5.3661508960e+00 2.0364822094e-01 1.9305586640e+00 -3.3438256930e+00 1.9305586640e+00 3.3438256930e+00 
6000 5.3646248951e+00 2.0192573955e-01 1.9252867382e+00 -3.3346944497e+00 1.9252867382e+00 3.3346944497e+00 
6100 5.3631246743e+00 2.0017869163e-01 1.9200450820e+00 -3.3256156349e+00 1.9200450820e+00 3.3256156349e+00 
6200 5.3616510789e+00 1.9840997862e-01 1.9148345829e+00 -3.3165907856e+00 1.9148345829e+00 3.3165907856e+00 
6300 5.3602048018e+00 1.9662235761e-01 1.9096560608e+00 -3.3076213222e+00 1.9096560608e+00 3.3076213222e+00 
6400 5.3587863960e+00 1.9481844381e-01 1.9045102709e+00 -3.2987085528e+00 1.9045102709e+00 3.2987085528e+00 
6500 5.3573962854e+00 1.9300071347e-01 1.8993979065e+00 -3.2898536779e+00 1.8993979065e+00 3.2898536779e+00 
6600 5.3560347753e+00 1.9117150729e-01 1.8943196014e+00 -3.2810577954e+00 1.8943196014e+00 3.2810577954e+00 
6700 5.3547020626e+00 1.8933303407e-01 1.8892759327e+00 -3.2723219050e+00 1.8892759327e+00 3.2723219050e+00 
6800 5.3533982453e+00 1.8748737465e-01 1.8842674234e+00 -3.2636469125e+00 1.8842674234e+00 3.2636469125e+00 
6900 5.3521233311e+00 1.8563648603e-01 1.8792945451e+00 -3.2550336346e+00 1.8792945451e+00 3.2550336346e+00 
7000 5.3508772461e+00 1.8378220561e-01 1.8743577203e+00 -3.2464828031e+00 1.8743577203e+00 3.2464828031e+00 
7100 5.3496598425e+00 1.8192625554e-01 1.8694573249e+00 -3.2379950693e+00 1.8694573249e+00 3.2379950693e+00 
7200 5.3484709060e+00 1.8007024706e-01 1.8645936907e+00 -3.2295710078e+00 1.8645936907e+00 3.2295710078e+00 
7300 5.3473101627e+00 1.7821568491e-01 1.8597671077e+00 -3.2212111208e+00 1.8597671077e+00 3.2212111208e+00 
7400 5.3461772854e+00 1.7636397168e-01 1.8549778262e+00 -3.2129158419e+00 1.8549778262e+00 3.2129158419e+00 
7500 5.3450718999e+00 1.7451641214e-01 1.8502260592e+00 -3.2046855400e+00 1.8502260592e+00 3.2046855400e+00 
7600 5.3439935901e+00 1.7267421748e-01 1.8455119843e+00 -3.1965205227e+00 1.8455119843e+00 3.1965205227e+00 
7700 5.3429419039e+00 1.7083850949e-01 1.8408357459e+00 -3.1884210403e+00 1.8408357459e+00 3.1884210403e+00 
7800 5.3419163572e+00 1.6901032465e-01 1.8361974571e+00 -3.1803872884e+00 1.8361974571e+00 3.1803872884e+00 
7900 5.3409164389e+00 1.6719061814e-01 1.8315972017e+00 -3.1724194123e+00 1.8315972017e+00 3.1724194123e+00 
8000 5.3399416150e+00 1.6538026767e-01 1.8270350357e+00 -3.1645175090e+00 1.8270350357e+00 3.1645175090e+00 
8100 5.3389913324e+00 1.6358007726e-01 1.8225109895e+00 -3.1566816311e+00 1.8225109895e+00 3.1566816311e+00 
8200 5.3380650224e+00 1.6179078093e-01 1.8180250693e+00 -3.1489117894e+00 1.8180250693e+00 3.1489117894e+00 
8300 5.3371621038e+00 1.6001304617e-01 1.8135772587e+00 -3.1412079555e+00 1.8135772587e+00 3.1412079555e+00 
8400 5.3362819862e+00 1.5824747740e-01 1.8091675206e+00 -3.1335700650e+00 1.8091675206e+00 3.1335700650e+00 
8500 5.3354240729e+00 1.5649461923e-01 1.8047957981e+00 -3.1259980196e+00 1.8047957981e+00 3.1259980196e+00 
8600 5.3345877627e+00 1.5475495968e-01 1.8004620166e+00 -3.1184916899e+00 1.8004620166e+00 3.1184916899e+00 
8700 5.3337724533e+00 1.5302893319e-01 1.7961660847e+00 -3.1110509175e+00 1.7961660847e+00 3.1110509175e+00 
8800 5.3329775423e+00 1.5131692360e-01 1.7919078955e+00 -3.1036755174e+00 1.7919078955e+00 3.1036755174e+00 
8900 5.3322024301e+00 1.4961926697e-01 1.7876873281e+00 -3.0963652803e+00 1.7876873281e+00 3.0963652803e+00 
9000 5.3314465210e+00 1.4793625435e-01 1.7835042488e+00 -3.0891199744e+00 1.7835042488e+00 3.0891199744e+00 
9100 5.3307092250e+00 1.4626813432e-01 1.7793585120e+00 -3.0819393476e+00 1.7793585120e+00 3.0819393476e+00 
9200 5.3299899594e+00 1.4461511559e-01 1.7752499613e+00 -3.0748231290e+00 1.7752499613e+00 3.0748231290e+00 
9300 5.3292881497e+00 1.4297736939e-01 1.7711784307e+00 -3.0677710313e+00 1.7711784307e+00 3.0677710313e+00 
9400 5.3286032311e+00 1.4135503176e-01 1.7671437457e+00 -3.0607827518e+00 1.7671437457e+00 3.0607827518e+00 
9500 5.3279346494e+00 1.3974820584e-01 1.7631457237e+00 -3.0538579747e+00 1.7631457237e+00 3.0538579747e+00 
9600 5.3272818617e+00 1.3815696398e-01 1.7591841755e+00 -3.0469963719e+00 1.7591841755e+00 3.0469963719e+00 
9700 5.3266443375e+00 1.3658134978e-01 1.7552589057e+00 -3.0401976051e+00 1.7552589057e+00 3.0401976051e+00 
9800 5.3260215591e+00 1.3502138010e-01 1.7513697136e+00 -3.0334613268e+00 1.7513697136e+00 3.0334613268e+00 
9900 5.3254130223e+00 1.3347704689e-01 1.7475163941e+00 -3.0267871817e+00 1.7475163941e+00 3.0267871817e+00 
10000 5.3248182370e+00 1.3194831905e-01 1.7436987383e+00 -3.0201748078e+00 1.7436987383e+00 3.0201748078e+00 
10100 5.3242367271e+00 1.3043514414e-01 1.7399165340e+00 -3.0136238378e+00 1.7399165340e+00 3.0136238378e+00 
10200 5.3236680315e+00 1.2893745003e-01 1.7361695666e+00 -3.0071338999e+00 1.7361695666e+00 3.0071338999e+00 
10300 5.3231117040e+00 1.2745514651e-01 1.7324576196e+00 -3.0007046190e+00 1.7324576196e+00 3.0007046190e+00 
10400 5.3225673131e+00 1.2598812680e-01 1.7287804748e+00 -2.9943356176e+00 1.7287804748e+00 2.9943356176e+00 
10500 5.3220344429e+00 1.2453626897e-01 1.7251379136e+00 -2.9880265164e+00 1.7251379136e+00 2.9880265164e+00 
10600 5.3215126925e+00 1.2309943739e-01 1.7215297166e+00 -2.9817769358e+00 1.7215297166e+00 2.9817769358e+00 
10700 5.3210016763e+00 1.2167748401e-01 1.7179556644e+00 -2.9755864959e+00 1.7179556644e+00 2.9755864959e+00 
10800 5.3205010238e+00 1.2027024961e-01 1.7144155383e+00 -2.9694548176e+00 1.7144155383e+00 2.9694548176e+00 
10900 5.3200103795e+00 1.1887756507e-01 1.7109091202e+00 -2.9633815233e+00 1.7109091202e+00 2.9633815233e+00 
11000 5.3195294029e+00 1.1749925244e-01 1.7074361931e+00 -2.9573662372e+00 1.7074361931e+00 2.9573662372e+00 
11100 5.3190577681e+00 1.1613512609e-01 1.7039965416e+00 -2.9514085860e+00 1.7039965416e+00 2.9514085860e+00 
11200 5.3185951639e+00 1.1478499373e-01 1.7005899520e+00 -2.9455081997e+00 1.7005899520e+00 2.9455081997e+00 
11300 5.3181412931e+00 1.1344865738e-01 1.6972162124e+00 -2.9396647113e+00 1.6972162124e+00 2.9396647113e+00 
11400 5.3176958726e+00 1.1212591433e-01 1.6938751133e+00 -2.9338777580e+00 1.6938751133e+00 2.9338777580e+00 
11500 5.3172586330e+00 1.1081655804e-01 1.6905664477e+00 -2.9281469810e+00 1.6905664477e+00 2.9281469810e+00 
11600 5.3168293181e+00 1.0952037892e-01 1.6872900109e+00 -2.9224720260e+00 1.6872900109e+00 2.9224720260e+00 
11700 5.3164076847e+00 1.0823716518e-01 1.6840456012e+00 -2.9168525436e+00 1.6840456012e+00 2.9168525436e+00 
11800 5.3159935025e+00 1.0696670358e-01 1.6808330197e+00 -2.9112881892e+00 1.6808330197e+00 2.9112881892e+00 
11900 5.3155865529e+00 1.0570878008e-01 1.6776520705e+00 -2.9057786235e+00 1.6776520705e+00 2.9057786235e+00 
12000 5.3151866298e+00 1.0446318055e-01 1.6745025607e+00 -2.9003235125e+00 1.6745025607e+00 2.9003235125e+00 
12100 5.3147935380e+00 1.0322969138e-01 1.6713843006e+00 -2.8949225277e+00 1.6713843006e+00 2.8949225277e+00 
12200 5.3144070937e+00 1.0200810005e-01 1.6682971039e+00 -2.8895753461e+00 1.6682971039e+00 2.8895753461e+00 
12300 5.3140271236e+00 1.0079819568e-01 1.6652407872e+00 -2.8842816502e+00 1.6652407872e+00 2.8842816502e+00 
12400 5.3136534645e+00 9.9599769526e-02 1.6622151705e+00 -2.8790411284e+00 1.6622151705e+00 2.8790411284e+00 
12500 5.3132859632e+00 9.8412615460e-02 1.6592200770e+00 -2.8738534743e+00 1.6592200770e+00 2.8738534743e+00 
12600 5.3129244758e+00 9.7236530389e-02 1.6562553333e+00 -2.8687183875e+00 1.6562553333e+00 2.8687183875e+00 
12700 5.3125688672e+00 9.6071314657e-02 1.6533207689e+00 -2.8636355730e+00 1.6533207689e+00 2.8636355730e+00 
12800 5.3122190110e+00 9.4916772409e-02 1.6504162168e+00 -2.8586047411e+00 1.6504162168e+00 2.8586047411e+00 
12900 5.3118747887e+00 9.3772711923e-02 1.6475415128e+00 -2.8536256078e+00 1.6475415128e+00 2.8536256078e+00 
13000 5.3115360898e+00 9.2638945907e-02 1.6446964959e+00 -2.8486978939e+00 1.6446964959e+00 2.8486978939e+00 
13100 5.3112028106e+00 9.1515291776e-02 1.6418810080e+00 -2.8438213258e+00 1.6418810080e+00 2.8438213258e+00 
13200 5.3108748547e+00 9.0401571883e-02 1.6390948938e+00 -2.8389956345e+00 1.6390948938e+00 2.8389956345e+00 
13300 5.3105521318e+00 8.9297613743e-02 1.6363380010e+00 -2.8342205560e+00 1.6363380010e+00 2.8342205560e+00 
13400 5.3102345580e+00 8.8203250211e-02 1.6336101796e+00 -2.8294958308e+00 1.6336101796e+00 2.8294958308e+00 
13500 5.3099220549e+00 8.7118319647e-02 1.6309112825e+00 -2.8248212039e+00 1.6309112825e+00 2.8248212039e+00 
13600 5.3096145493e+00 8.6042666047e-02 1.6282411648e+00 -2.8201964243e+00 1.6282411648e+00 2.8201964243e+00 
13700 5.3093119731e+00 8.4976139158e-02 1.6255996839e+00 -2.8156212453e+00 1.6255996839e+00 2.8156212453e+00 
13800 5.3090142628e+00 8.3918594563e-02 1.6229866995e+00 -2.8110954236e+00 1.6229866995e+00 2.8110954236e+00 
13900 5.3087213590e+00 8.2869893749e-02 1.6204020733e+00 -2.8066187196e+00 1.6204020733e+00 2.8066187196e+00 
14000 5.3084332064e+00 8.1829904150e-02 1.6178456688e+00 -2.8021908971e+00 1.6178456688e+00 2.8021908971e+00 
14100 5.3081497530e+00 8.0798499176e-02 1.6153173512e+00 -2.7978117227e+00 1.6153173512e+00 2.7978117227e+00 
14200 5.3078709503e+00 7.9775558213e-02 1.6128169876e+00 -2.7934809658e+00 1.6128169876e+00 2.7934809658e+00 
14300 5.3075967527e+00 7.8760966616e-02 1.6103444461e+00 -2.7891983983e+00 1.6103444461e+00 2.7891983983e+00 
14400 5.3073271172e+00 7.7754615678e-02 1.6078995964e+00 -2.7849637944e+00 1.6078995964e+00 2.7849637944e+00 
14500 5.3070620033e+00 7.6756402583e-02 1.6054823093e+00 -2.7807769304e+00 1.6054823093e+00 2.7807769304e+00 
14600 5.3068013725e+00 7.5766230346e-02 1.6030924565e+00 -2.7766375839e+00 1.6030924565e+00 2.7766375839e+00 
14700 5.3065451883e+00 7.4784007741e-02 1.6007299107e+00 -2.7725455345e+00 1.6007299107e+00 2.7725455345e+00 
14800 5.3062934157e+00 7.3809649205e-02 1.5983945451e+00 -2.7685005626e+00 1.5983945451e+00 2.7685005626e+00 
14900 5.3060460213e+00 7.2843074745e-02 1.5960862334e+00 -2.7645024496e+00 1.5960862334e+00 2.7645024496e+00 
15000 5.3058029727e+00 7.1884209819e-02 1.5938048500e+00 -2.7605509776e+00 1.5938048500e+00 2.7605509776e+00 
15100 5.3055642387e+00 7.0932985217e-02 1.5915502693e+00 -2.7566459293e+00 1.5915502693e+00 2.7566459293e+00 
15200 5.3053297885e+00 6.9989336922e-02 1.5893223658e+00 -2.7527870872e+00 1.5893223658e+00 2.7527870872e+00 
15300 5.3050995924e+00 6.9053205974e-02 1.5871210140e+00 -2.7489742339e+00 1.5871210140e+00 2.7489742339e+00 
15400 5.3048736208e+00 6.8124538313e-02 1.5849460881e+00 -2.7452071519e+00 1.5849460881e+00 2.7452071519e+00 
15500 5.3046518445e+00 6.7203284623e-02 1.5827974623e+00 -2.7414856228e+00 1.5827974623e+00 2.7414856228e+00 
15600 5.3044342345e+00 6.6289400170e-02 1.5806750100e+00 -2.7378094276e+00 1.5806750100e+00 2.7378094276e+00 
15700 5.3042207616e+00 6.5382844626e-02 1.5785786043e+00 -2.7341783463e+00 1.5785786043e+00 2.7341783463e+00 
15800 5.3040113967e+00 6.4483581894e-02 1.5765081173e+00 -2.7305921576e+00 1.5765081173e+00 2.7305921576e+00 
15900 5.3038061104e+00 6.3591579930e-02 1.5744634205e+00 -2.7270506389e+00 1.5744634205e+00 2.7270506389e+00 
16000 5.3036048728e+00 6.2706810557e-02 1.5724443844e+00 -2.7235535659e+00 1.5724443844e+00 2.7235535659e+00 
16100 5.3034076539e+00 6.1829249278e-02 1.5704508786e+00 -2.7201007125e+00 1.5704508786e+00 2.7201007125e+00 
16200 5.3032144228e+00 6.0958875085e-02 1.5684827713e+00 -2.7166918507e+00 1.5684827713e+00 2.7166918507e+00 
16300 5.3030251483e+00 6.0095670272e-02 1.5665399297e+00 -2.7133267503e+00 1.5665399297e+00 2.7133267503e+00 
16400 5.3028397984e+00 5.9239620236e-02 1.5646222195e+00 -2.7100051788e+00 1.5646222195e+00 2.7100051788e+00 
16500 5.3026583404e+00 5.8390713290e-02 1.5627295051e+00 -2.7067269013e+00 1.5627295051e+00 2.7067269013e+00 
16600 5.3024807410e+00 5.7548940464e-02 1.5608616494e+00 -2.7034916803e+00 1.5608616494e+00 2.7034916803e+00 
16700 5.3023069659e+00 5.6714295320e-02 1.5590185136e+00 -2.7002992755e+00 1.5590185136e+00 2.7002992755e+00 
16800 5.3021369799e+00 5.5886773752e-02 1.5571999574e+00 -2.6971494438e+00 1.5571999574e+00 2.6971494438e+00 
16900 5.3019707472e+00 5.5066373805e-02 1.5554058389e+00 -2.6940419393e+00 1.5554058389e+00 2.6940419393e+00 
17000 5.3018082310e+00 5.4253095480e-02 1.5536360140e+00 -2.6909765128e+00 1.5536360140e+00 2.6909765128e+00 
17100 5.3016493936e+00 5.3446940552e-02 1.5518903374e+00 -2.6879529121e+00 1.5518903374e+00 2.6879529121e+00 
17200 5.3014941964e+00 5.2647912387e-02 1.5501686614e+00 -2.6849708819e+00 1.5501686614e+00 2.6849708819e+00 
17300 5.3013425999e+00 5.1856015761e-02 1.5484708368e+00 -2.6820301635e+00 1.5484708368e+00 2.6820301635e+00 
17400 5.3011945638e+00 5.1071256689e-02 1.5467967123e+00 -2.6791304947e+00 1.5467967123e+00 2.6791304947e+00 
17500 5.3010500467e+00 5.0293642245e-02 1.5451461347e+00 -2.6762716103e+00 1.5451461347e+00 2.6762716103e+00 
17600 5.3009090066e+00 4.9523180402e-02 1.5435189486e+00 -2.6734532415e+00 1.5435189486e+00 2.6734532415e+00 
17700 5.3007714006e+00 4.8759879866e-02 1.5419149970e+00 -2.6706751158e+00 1.5419149970e+00 2.6706751158e+00 
17800 5.3006371847e+00 4.8003749915e-02 1.5403341207e+00 -2.6679369577e+00 1.5403341207e+00 2.6679369577e+00 
17900 5.3005063146e+00 4.7254800249e-02 1.5387761585e+00 -2.6652384880e+00 1.5387761585e+00 2.6652384880e+00 
18000 5.3003787448e+00 4.6513040838e-02 1.5372409471e+00 -2.6625794239e+00 1.5372409471e+00 2.6625794239e+00 
18100 5.3002544293e+00 4.5778481781e-02 1.5357283214e+00 -2.6599594792e+00 1.5357283214e+00 2.6599594792e+00 
18200 5.3001333213e+00 4.5051133168e-02 1.5342381141e+00 -2.6573783646e+00 1.5342381141e+00 2.6573783646e+00 
18300 5.3000153736e+00 4.4331004947e-02 1.5327701562e+00 -2.6548357868e+00 1.5327701562e+00 2.6548357868e+00 
18400 5.2999005380e+00 4.3618106797e-02 1.5313242764e+00 -2.6523314496e+00 1.5313242764e+00 2.6523314496e+00 
18500 5.2997887660e+00 4.2912448008e-02 1.5299003017e+00 -2.6498650531e+00 1.5299003017e+00 2.6498650531e+00 
18600 5.2996800086e+00 4.2214037364e-02 1.5284980572e+00 -2.6474362944e+00 1.5284980572e+00 2.6474362944e+00 
18700 5.2995742161e+00 4.1522883037e-02 1.5271173660e+00 -2.6450448671e+00 1.5271173660e+00 2.6450448671e+00 
18800 5.2994713387e+00 4.0838992480e-02 1.5257580496e+00 -2.6426904619e+00 1.5257580496e+00 2.6426904619e+00 
18900 5.2993713259e+00 4.0162372331e-02 1.5244199273e+00 -2.6403727661e+00 1.5244199273e+00 2.6403727661e+00 
19000 5.2992741270e+00 3.9493028322e-02 1.5231028170e+00 -2.6380914642e+00 1.5231028170e+00 2.6380914642e+00 
19100 5.2991796913e+00 3.8830965191e-02 1.5218065348e+00 -2.6358462376e+00 1.5218065348e+00 2.6358462376e+00 
19200 5.2990879673e+00 3.8176186605e-02 1.5205308952e+00 -2.6336367649e+00 1.5205308952e+00 2.6336367649e+00 
19300 5.2989989038e+00 3.7528695081e-02 1.5192757109e+00 -2.6314627220e+00 1.5192757109e+00 2.6314627220e+00 
19400 5.2989124493e+00 3.6888491924e-02 1.5180407933e+00 -2.6293237820e+00 1.5180407933e+00 2.6293237820e+00 
19500 5.2988285522e+00 3.6255577155e-02 1.5168259522e+00 -2.6272196154e+00 1.5168259522e+00 2.6272196154e+00 
19600 5.2987471610e+00 3.5629949463e-02 1.5156309960e+00 -2.6251498905e+00 1.5156309960e+00 2.6251498905e+00 
19700 5.2986682239e+00 3.5011606146e-02 1.5144557316e+00 -2.6231142730e+00 1.5144557316e+00 2.6231142730e+00 
19800 5.2985916896e+00 3.4400543064e-02 1.5132999650e+00 -2.6211124264e+00 1.5132999650e+00 2.6211124264e+00 
19900 5.2985175065e+00 3.3796754602e-02 1.5121635005e+00 -2.6191440122e+00 1.5121635005e+00 2.6191440122e+00 
20000 5.2984456235e+00 3.3200233630e-02 1.5110461415e+00 -2.6172086897e+00 1.5110461415e+00 2.6172086897e+00 
20100 5.2983759895e+00 3.2610971471e-02 1.5099476904e+00 -2.6153061165e+00 1.5099476904e+00 2.6153061165e+00 
20200 5.2983085536e+00 3.2028957873e-02 1.5088679483e+00 -2.6134359483e+00 1.5088679483e+00 2.6134359483e+00 
20300 5.2982432653e+00 3.1454180988e-02 1.5078067156e+00 -2.6115978394e+00 1.5078067156e+00 2.6115978394e+00 
20400 5.2981800744e+00 3.0886627356e-02 1.5067637917e+00 -2.6097914422e+00 1.5067637917e+00 2.6097914422e+00 
20500 5.2981189311e+00 3.0326281886e-02 1.5057389754e+00 -2.6080164083e+00 1.5057389754e+00 2.6080164083e+00 
20600 5.2980597858e+00 2.9773127848e-02 1.5047320645e+00 -2.6062723874e+00 1.5047320645e+00 2.6062723874e+00 
20700 5.2980025897e+00 2.9227146870e-02 1.5037428564e+00 -2.6045590287e+00 1.5037428564e+00 2.6045590287e+00 
20800 5.2979472940e+00 2.8688318932e-02 1.5027711478e+00 -2.6028759801e+00 1.5027711478e+00 2.6028759801e+00 
20900 5.2978938508e+00 2.8156622372e-02 1.5018167350e+00 -2.6012228887e+00 1.5018167350e+00 2.6012228887e+00 
21000 5.2978422124e+00 2.7632033885e-02 1.5008794139e+00 -2.5995994008e+00 1.5008794139e+00 2.5995994008e+00 
21100 5.2977923321e+00 2.7114528539e-02 1.4999589799e+00 -2.5980051625e+00 1.4999589799e+00 2.5980051625e+00 
21200 5.2977441632e+00 2.6604079777e-02 1.4990552284e+00 -2.5964398189e+00 1.4990552284e+00 2.5964398189e+00 
21300 5.2976976601e+00 2.6100659442e-02 1.4981679544e+00 -2.5949030153e+00 1.4981679544e+00 2.5949030153e+00 
21400 5.2976527775e+00 2.5604237786e-02 1.4972969530e+00 -2.5933943966e+00 1.4972969530e+00 2.5933943966e+00 
21500 5.2976094711e+00 2.5114783492e-02 1.4964420191e+00 -2.5919136076e+00 1.4964420191e+00 2.5919136076e+00 
21600 5.2975676968e+00 2.4632263699e-02 1.4956029476e+00 -2.5904602932e+00 1.4956029476e+00 2.5904602932e+00 
21700 5.2975274117e+00 2.4156644023e-02 1.4947795338e+00 -2.5890340987e+00 1.4947795338e+00 2.5890340987e+00 
21800 5.2974885732e+00 2.3687888586e-02 1.4939715730e+00 -2.5876346695e+00 1.4939715730e+00 2.5876346695e+00 
21900 5.2974511397e+00 2.3225960045e-02 1.4931788607e+00 -2.5862616515e+00 1.4931788607e+00 2.5862616515e+00 
22000 5.2974150701e+00 2.2770819620e-02 1.4924011929e+00 -2.5849146914e+00 1.4924011929e+00 2.5849146914e+00 
22100 5.2973803241e+00 2.2322427128e-02 1.4916383659e+00 -2.5835934362e+00 1.4916383659e+00 2.5835934362e+00 
22200 5.2973468624e+00 2.1880741018e-02 1.4908901765e+00 -2.5822975342e+00 1.4908901765e+00 2.5822975342e+00 
22300 5.2973146462e+00 2.1445718405e-02 1.4901564221e+00 -2.5810266343e+00 1.4901564221e+00 2.5810266343e+00 
22400 5.2972836376e+00 2.1017315105e-02 1.4894369006e+00 -2.5797803865e+00 1.4894369006e+00 2.5797803865e+00 
22500 5.2972537993e+00 2.0595485675e-02 1.4887314106e+00 -2.5785584421e+00 1.4887314106e+00 2.5785584421e+00 
22600 5.2972250949e+00 2.0180183452e-02 1.4880397516e+00 -2.5773604535e+00 1.4880397516e+00 2.5773604535e+00 
22700 5.2971974890e+00 1.9771360591e-02 1.4873617237e+00 -2.5761860747e+00 1.4873617237e+00 2.5761860747e+00 
22800 5.2971709465e+00 1.9368968107e-02 1.4866971279e+00 -2.5750349610e+00 1.4866971279e+00 2.5750349610e+00 
22900 5.2971454336e+00 1.8972955913e-02 1.4860457661e+00 -2.5739067693e+00 1.4860457661e+00 2.5739067693e+00 
23000 5.2971209169e+00 1.8583272866e-02 1.4854074413e+00 -2.5728011584e+00 1.4854074413e+00 2.5728011584e+00 
23100 5.2970973640e+00 1.8199866807e-02 1.4847819575e+00 -2.5717177885e+00 1.4847819575e+00 2.5717177885e+00 
23200 5.2970747432e+00 1.7822684602e-02 1.4841691195e+00 -2.5706563221e+00 1.4841691195e+00 2.5706563221e+00 
23300 5.2970530236e+00 1.7451672189e-02 1.4835687337e+00 -2.5696164233e+00 1.4835687337e+00 2.5696164233e+00 
23400 5.2970321750e+00 1.7086774616e-02 1.4829806073e+00 -2.5685977585e+00 1.4829806073e+00 2.5685977585e+00 
23500 5.2970121681e+00 1.6727936088e-02 1.4824045489e+00 -2.5675999961e+00 1.4824045489e+00 2.5675999961e+00 
23600 5.2969929743e+00 1.6375100007e-02 1.4818403684e+00 -2.5666228068e+00 1.4818403684e+00 2.5666228068e+00 
23700 5.2969745656e+00 1.6028209018e-02 1.4812878770e+00 -2.5656658636e+00 1.4812878770e+00 2.5656658636e+00 
23800 5.2969569151e+00 1.5687205051e-02 1.4807468872e+00 -2.5647288418e+00 1.4807468872e+00 2.5647288418e+00 
23900 5.2969399963e+00 1.5352029360e-02 1.4802172130e+00 -2.5638114191e+00 1.4802172130e+00 2.5638114191e+00 
24000 5.2969237836e+00 1.5022622573e-02 1.4796986697e+00 -2.5629132759e+00 1.4796986697e+00 2.5629132759e+00 
24100 5.2969082521e+00 1.4698924727e-02 1.4791910744e+00 -2.5620340949e+00 1.4791910744e+00 2.5620340949e+00 
24200 5.2968933776e+00 1.4380875313e-02 1.4786942453e+00 -2.5611735618e+00 1.4786942453e+00 2.5611735618e+00 
24300 5.2968791364e+00 1.4068413316e-02 1.4782080026e+00 -2.5603313647e+00 1.4782080026e+00 2.5603313647e+00 
24400 5.2968655059e+00 1.3761477258e-02 1.4777321677e+00 -2.5595071945e+00 1.4777321677e+00 2.5595071945e+00 
24500 5.2968524638e+00 1.3460005236e-02 1.4772665639e+00 -2.5587007450e+00 1.4772665639e+00 2.5587007450e+00 
24600 5.2968399887e+00 1.3163934963e-02 1.4768110160e+00 -2.5579117130e+00 1.4768110160e+00 2.5579117130e+00 
24700 5.2968280598e+00 1.2873203806e-02 1.4763653506e+00 -2.5571397978e+00 1.4763653506e+00 2.5571397978e+00 
24800 5.2968166567e+00 1.2587748827e-02 1.4759293958e+00 -2.5563847020e+00 1.4759293958e+00 2.5563847020e+00 
24900 5.2968057600e+00 1.2307506815e-02 1.4755029817e+00 -2.5556461311e+00 1.4755029817e+00 2.5556461311e+00 
25000 5.2967953507e+00 1.2032414331e-02 1.4750859400e+00 -2.5549237936e+00 1.4750859400e+00 2.5549237936e+00 
25100 5.2967854103e+00 1.1762407739e-02 1.4746781041e+00 -2.5542174011e+00 1.4746781041e+00 2.5542174011e+00 
25200 5.2967759213e+00 1.1497423242e-02 1.4742793093e+00 -2.5535266683e+00 1.4742793093e+00 2.5535266683e+00 
25300 5.2967668663e+00 1.1237396920e-02 1.4738893929e+00 -2.5528513132e+00 1.4738893929e+00 2.5528513132e+00 
25400 5.2967582287e+00 1.0982264759e-02 1.4735081935e+00 -2.5521910566e+00 1.4735081935e+00 2.5521910566e+00 
25500 5.2967499924e+00 1.0731962689e-02 1.4731355522e+00 -2.5515456228e+00 1.4731355522e+00 2.5515456228e+00 
25600 5.2967421419e+00 1.0486426614e-02 1.4727713114e+00 -2.5509147393e+00 1.4727713114e+00 2.5509147393e+00 
25700 5.2967346621e+00 1.0245592445e-02 1.4724153158e+00 -2.5502981368e+00 1.4724153158e+00 2.5502981368e+00 
25800 5.2967275385e+00 1.0009396127e-02 1.4720674116e+00 -2.5496955490e+00 1.4720674116e+00 2.5496955490e+00 
25900 5.2967207571e+00 9.7777736754e-03 1.4717274472e+00 -2.5491067134e+00 1.4717274472e+00 2.5491067134e+00 
26000 5.2967143042e+00 9.5506611981e-03 1.4713952727e+00 -2.5485313703e+00 1.4713952727e+00 2.5485313703e+00 
26100 5.2967081669e+00 9.3279949284e-03 1.4710707403e+00 -2.5479692637e+00 1.4710707403e+00 2.5479692637e+00 
26200 5.2967023325e+00 9.1097112503e-03 1.4707537038e+00 -2.5474201405e+00 1.4707537038e+00 2.5474201405e+00 
26300 5.2966967888e+00 8.8957467255e-03 1.4704440194e+00 -2.5468837513e+00 1.4704440194e+00 2.5468837513e+00 
26400 5.2966915240e+00 8.6860381188e-03 1.4701415447e+00 -2.5463598497e+00 1.4701415447e+00 2.5463598497e+00 
26500 5.2966865268e+00 8.4805224228e-03 1.4698461396e+00 -2.5458481930e+00 1.4698461396e+00 2.5458481930e+00 
26600 5.2966817863e+00 8.2791368818e-03 1.4695576657e+00 -2.5453485416e+00 1.4695576657e+00 2.5453485416e+00 
26700 5.2966772919e+00 8.0818190147e-03 1.4692759866e+00 -2.5448606592e+00 1.4692759866e+00 2.5448606592e+00 
26800 5.2966730335e+00 7.8885066373e-03 1.4690009679e+00 -2.5443843128e+00 1.4690009679e+00 2.5443843128e+00 
26900 5.2966690012e+00 7.6991378837e-03 1.4687324771e+00 -2.5439192730e+00 1.4687324771e+00 2.5439192730e+00 
27000 5.2966651857e+00 7.5136512263e-03 1.4684703834e+00 -2.5434653135e+00 1.4684703834e+00 2.5434653135e+00 
27100 5.2966615779e+00 7.3319854961e-03 1.4682145583e+00 -2.5430222114e+00 1.4682145583e+00 2.5430222114e+00 
27200 5.2966581689e+00 7.1540799009e-03 1.4679648748e+00 -2.5425897470e+00 1.4679648748e+00 2.5425897470e+00 
27300 5.2966549505e+00 6.9798740439e-03 1.4677212082e+00 -2.5421677039e+00 1.4677212082e+00 2.5421677039e+00 
27400 5.2966519144e+00 6.8093079406e-03 1.4674834353e+00 -2.5417558692e+00 1.4674834353e+00 2.5417558692e+00 
27500 5.2966490529e+00 6.6423220351e-03 1.4672514351e+00 -2.5413540331e+00 1.4672514351e+00 2.5413540331e+00 
27600 5.2966463584e+00 6.4788572163e-03 1.4670250884e+00 -2.5409619891e+00 1.4670250884e+00 2.5409619891e+00 
27700 5.2966438238e+00 6.3188548323e-03 1.4668042778e+00 -2.5405795339e+00 1.4668042778e+00 2.5405795339e+00 
27800 5.2966414420e+00 6.1622567049e-03 1.4665888878e+00 -2.5402064674e+00 1.4665888878e+00 2.5402064674e+00 
27900 5.2966392065e+00 6.0090051427e-03 1.4663788047e+00 -2.5398425929e+00 1.4663788047e+00 2.5398425929e+00 
28000 5.2966371107e+00 5.8590429543e-03 1.4661739168e+00 -2.5394877166e+00 1.4661739168e+00 2.5394877166e+00 
28100 5.2966351484e+00 5.7123134600e-03 1.4659741141e+00 -2.5391416482e+00 1.4659741141e+00 2.5391416482e+00 
28200 5.2966333139e+00 5.5687605028e-03 1.4657792885e+00 -2.5388042003e+00 1.4657792885e+00 2.5388042003e+00 
28300 5.2966316012e+00 5.4283284598e-03 1.4655893335e+00 -2.5384751887e+00 1.4655893335e+00 2.5384751887e+00 
28400 5.2966300049e+00 5.2909622516e-03 1.4654041448e+00 -2.5381544323e+00 1.4654041448e+00 2.5381544323e+00 
28500 5.2966285199e+00 5.1566073516e-03 1.4652236194e+00 -2.5378417532e+00 1.4652236194e+00 2.5378417532e+00 
28600 5.2966271409e+00 5.0252097953e-03 1.4650476563e+00 -2.5375369762e+00 1.4650476563e+00 2.5375369762e+00 
28700 5.2966258631e+00 4.8967161875e-03 1.4648761564e+00 -2.5372399296e+00 1.4648761564e+00 2.5372399296e+00 
28800 5.2966246819e+00 4.7710737104e-03 1.4647090220e+00 -2.5369504444e+00 1.4647090220e+00 2.5369504444e+00 
28900 5.2966235927e+00 4.6482301303e-03 1.4645461574e+00 -2.5366683546e+00 1.4645461574e+00 2.5366683546e+00 
29000 5.2966225912e+00 4.5281338040e-03 1.4643874684e+00 -2.5363934973e+00 1.4643874684e+00 2.5363934973e+00 
29100 5.2966216734e+00 4.4107336841e-03 1.4642328627e+00 -2.5361257123e+00 1.4642328627e+00 2.5361257123e+00 
29200 5.2966208351e+00 4.2959793249e-03 1.4640822494e+00 -2.5358648424e+00 1.4640822494e+00 2.5358648424e+00 
29300 5.2966200727e+00 4.1838208864e-03 1.4639355395e+00 -2.5356107334e+00 1.4639355395e+00 2.5356107334e+00 
29400 5.2966193824e+00 4.0742091392e-03 1.4637926455e+00 -2.5353632337e+00 1.4637926455e+00 2.5353632337e+00 
29500 5.2966187608e+00 3.9670954672e-03 1.4636534815e+00 -2.5351221946e+00 1.4636534815e+00 2.5351221946e+00 
29600 5.2966182044e+00 3.8624318718e-03 1.4635179633e+00 -2.5348874702e+00 1.4635179633e+00 2.5348874702e+00 
29700 5.2966177100e+00 3.7601709739e-03 1.4633860081e+00 -2.5346589172e+00 1.4633860081e+00 2.5346589172e+00 
29800 5.2966172746e+00 3.6602660162e-03 1.4632575350e+00 -2.5344363952e+00 1.4632575350e+00 2.5344363952e+00 
29900 5.2966168951e+00 3.5626708657e-03 1.4631324643e+00 -2.5342197663e+00 1.4631324643e+00 2.5342197663e+00 
30000 5.2966165687e+00 3.4673400140e-03 1.4630107179e+00 -2.5340088954e+00 1.4630107179e+00 2.5340088954e+00 
30100 5.2966162927e+00 3.3742285794e-03 1.4628922193e+00 -2.5338036499e+00 1.4628922193e+00 2.5338036499e+00 
30200 5.2966160644e+00 3.2832923065e-03 1.4627768935e+00 -2.5336038998e+00 1.4627768935e+00 2.5336038998e+00 
30300 5.2966158814e+00 3.1944875670e-03 1.4626646669e+00 -2.5334095175e+00 1.4626646669e+00 2.5334095175e+00 
30400 5.2966157411e+00 3.1077713596e-03 1.4625554673e+00 -2.5332203783e+00 1.4625554673e+00 2.5332203783e+00 
30500 5.2966156414e+00 3.0231013087e-03 1.4624492240e+00 -2.5330363595e+00 1.4624492240e+00 2.5330363595e+00 
30600 5.2966155801e+00 2.9404356646e-03 1.4623458678e+00 -2.5328573412e+00 1.4623458678e+00 2.5328573412e+00 
30700 5.2966155549e+00 2.8597333014e-03 1.4622453306e+00 -2.5326832058e+00 1.4622453306e+00 2.5326832058e+00 
30800 5.2966155638e+00 2.7809537159e-03 1.4621475460e+00 -2.5325138379e+00 1.4621475460e+00 2.5325138379e+00 
30900 5.2966156050e+00 2.7040570257e-03 1.4620524488e+00 -2.5323491246e+00 1.4620524488e+00 2.5323491246e+00 
31000 5.2966156766e+00 2.6290039671e-03 1.4619599751e+00 -2.5321889555e+00 1.4619599751e+00 2.5321889555e+00 
31100 5.2966157768e+00 2.5557558926e-03 1.4618700623e+00 -2.5320332220e+00 1.4618700623e+00 2.5320332220e+00 
31200 5.2966159038e+00 2.4842747682e-03 1.4617826493e+00 -2.5318818182e+00 1.4617826493e+00 2.5318818182e+00 
31300 5.2966160561e+00 2.4145231707e-03 1.4616976759e+00 -2.5317346400e+00 1.4616976759e+00 2.5317346400e+00 
31400 5.2966162322e+00 2.3464642843e-03 1.4616150836e+00 -2.5315915859e+00 1.4616150836e+00 2.5315915859e+00 
31500 5.2966164304e+00 2.2800618971e-03 1.4615348148e+00 -2.5314525562e+00 1.4615348148e+00 2.5314525562e+00 
31600 5.2966166495e+00 2.2152803977e-03 1.4614568132e+00 -2.5313174535e+00 1.4614568132e+00 2.5313174535e+00 
31700 5.2966168880e+00 2.1520847714e-03 1.4613810237e+00 -2.5311861822e+00 1.4613810237e+00 2.5311861822e+00 
31800 5.2966171446e+00 2.0904405957e-03 1.4613073924e+00 -2.5310586491e+00 1.4613073924e+00 2.5310586491e+00 
31900 5.2966174181e+00 2.0303140365e-03 1.4612358666e+00 -2.5309347628e+00 1.4612358666e+00 2.5309347628e+00 
32000 5.2966177073e+00 1.9716718434e-03 1.4611663947e+00 -2.5308144339e+00 1.4611663947e+00 2.5308144339e+00 
32100 5.2966180111e+00 1.9144813452e-03 1.4610989261e+00 -2.5306975748e+00 1.4610989261e+00 2.5306975748e+00 
32200 5.2966183285e+00 1.8587104451e-03 1.4610334114e+00 -2.5305841002e+00 1.4610334114e+00 2.5305841002e+00 
32300 5.2966186583e+00 1.8043276158e-03 1.4609698025e+00 -2.5304739262e+00 1.4609698025e+00 2.5304739262e+00 
32400 5.2966189995e+00 1.7513018943e-03 1.4609080519e+00 -2.5303669710e+00 1.4609080519e+00 2.5303669710e+00 
32500 5.2966193514e+00 1.6996028768e-03 1.4608481135e+00 -2.5302631547e+00 1.4608481135e+00 2.5302631547e+00 
32600 5.2966197128e+00 1.6492007134e-03 1.4607899421e+00 -2.5301623989e+00 1.4607899421e+00 2.5301623989e+00 
32700 5.2966200831e+00 1.6000661024e-03 1.4607334935e+00 -2.5300646271e+00 1.4607334935e+00 2.5300646271e+00 
32800 5.2966204614e+00 1.5521702851e-03 1.4606787246e+00 -2.5299697645e+00 1.4606787246e+00 2.5299697645e+00 
32900 5.2966208470e+00 1.5054850397e-03 1.4606255931e+00 -2.5298777381e+00 1.4606255931e+00 2.5298777381e+00 
33000 5.2966212390e+00 1.4599826757e-03 1.4605740578e+00 -2.5297884763e+00 1.4605740578e+00 2.5297884763e+00 
33100 5.2966216368e+00 1.4156360281e-03 1.4605240783e+00 -2.5297019093e+00 1.4605240783e+00 2.5297019093e+00 
33200 5.2966220397e+00 1.3724184515e-03 1.4604756153e+00 -2.5296179689e+00 1.4604756153e+00 2.5296179689e+00 
33300 5.2966224472e+00 1.3303038138e-03 1.4604286302e+00 -2.5295365883e+00 1.4604286302e+00 2.5295365883e+00 
33400 5.2966228585e+00 1.2892664902e-03 1.4603830855e+00 -2.5294577025e+00 1.4603830855e+00 2.5294577025e+00 
33500 5.2966232732e+00 1.2492813572e-03 1.4603389443e+00 -2.5293812478e+00 1.4603389443e+00 2.5293812478e+00 
33600 5.2966236907e+00 1.2103237863e-03 1.4602961708e+00 -2.5293071620e+00 1.4602961708e+00 2.5293071620e+00 
33700 5.2966241104e+00 1.1723696376e-03 1.4602547300e+00 -2.5292353843e+00 1.4602547300e+00 2.5292353843e+00 
33800 5.2966245320e+00 1.1353952536e-03 1.4602145875e+00 -2.5291658555e+00 1.4602145875e+00 2.5291658555e+00 
33900 5.2966249549e+00 1.0993774528e-03 1.4601757100e+00 -2.5290985177e+00 1.4601757100e+00 2.5290985177e+00 
34000 5.2966253787e+00 1.0642935235e-03 1.4601380648e+00 -2.5290333143e+00 1.4601380648e+00 2.5290333143e+00 
34100 5.2966258031e+00 1.0301212170e-03 1.4601016200e+00 -2.5289701900e+00 1.4601016200e+00 2.5289701900e+00 
34200 5.2966262275e+00 9.9683874164e-04 1.4600663445e+00 -2.5289090910e+00 1.4600663445e+00 2.5289090910e+00 
34300 5.2966266517e+00 9.6442475587e-04 1.4600322078e+00 -2.5288499646e+00 1.4600322078e+00 2.5288499646e+00 
34400 5.2966270753e+00 9.3285836215e-04 1.4599991804e+00 -2.5287927595e+00 1.4599991804e+00 2.5287927595e+00 
34500 5.2966274980e+00 9.0211910030e-04 1.4599672333e+00 -2.5287374255e+00 1.4599672333e+00 2.5287374255e+00 
34600 5.2966279195e+00 8.7218694107e-04 1.4599363383e+00 -2.5286839137e+00 1.4599363383e+00 2.5286839137e+00 
34700 5.2966283395e+00 8.4304227963e-04 1.4599064676e+00 -2.5286321762e+00 1.4599064676e+00 2.5286321762e+00 
34800 5.2966287577e+00 8.1466592914e-04 1.4598775946e+00 -2.5285821666e+00 1.4598775946e+00 2.5285821666e+00 
34900 5.2966291739e+00 7.8703911425e-04 1.4598496928e+00 -2.5285338394e+00 1.4598496928e+00 2.5285338394e+00 
35000 5.2966295878e+00 7.6014346465e-04 1.4598227367e+00 -2.5284871500e+00 1.4598227367e+00 2.5284871500e+00 
35100 5.2966299993e+00 7.3396100865e-04 1.4597967013e+00 -2.5284420554e+00 1.4597967013e+00 2.5284420554e+00 
35200 5.2966304080e+00 7.0847416675e-04 1.4597715622e+00 -2.5283985133e+00 1.4597715622e+00 2.5283985133e+00 
35300 5.2966308139e+00 6.8366574526e-04 1.4597472957e+00 -2.5283564824e+00 1.4597472957e+00 2.5283564824e+00 
35400 5.2966312167e+00 6.5951892989e-04 1.4597238785e+00 -2.5283159226e+00 1.4597238785e+00 2.5283159226e+00 
35500 5.2966316164e+00 6.3601727948e-04 1.4597012880e+00 -2.5282767947e+00 1.4597012880e+00 2.5282767947e+00 
35600 5.2966320126e+00 6.1314471961e-04 1.4596795022e+00 -2.5282390606e+00 1.4596795022e+00 2.5282390606e+00 
35700 5.2966324054e+00 5.9088553640e-04 1.4596584995e+00 -2.5282026829e+00 1.4596584995e+00 2.5282026829e+00 
35800 5.2966327945e+00 5.6922437022e-04 1.4596382590e+00 -2.5281676253e+00 1.4596382590e+00 2.5281676253e+00 
35900 5.2966331798e+00 5.4814620952e-04 1.4596187603e+00 -2.5281338525e+00 1.4596187603e+00 2.5281338525e+00 
36000 5.2966335613e+00 5.2763638467e-04 1.4595999833e+00 -2.5281013298e+00 1.4595999833e+00 2.5281013298e+00 
36100 5.2966339388e+00 5.0768056186e-04 1.4595819086e+00 -2.5280700235e+00 1.4595819086e+00 2.5280700235e+00 
36200 5.2966343123e+00 4.8826473700e-04 1.4595645174e+00 -2.5280399010e+00 1.4595645174e+00 2.5280399010e+00 
36300 5.2966346816e+00 4.6937522976e-04 1.4595477910e+00 -2.5280109301e+00 1.4595477910e+00 2.5280109301e+00 
36400 5.2966350467e+00 4.5099867757e-04 1.4595317116e+00 -2.5279830797e+00 1.4595317116e+00 2.5279830797e+00 
36500 5.2966354076e+00 4.3312202971e-04 1.4595162615e+00 -2.5279563193e+00 1.4595162615e+00 2.5279563193e+00 
36600 5.2966357641e+00 4.1573254146e-04 1.4595014236e+00 -2.5279306195e+00 1.4595014236e+00 2.5279306195e+00 
36700 5.2966361163e+00 3.9881776830e-04 1.4594871814e+00 -2.5279059511e+00 1.4594871814e+00 2.5279059511e+00 
36800 5.2966364640e+00 3.8236556015e-04 1.4594735185e+00 -2.5278822863e+00 1.4594735185e+00 2.5278822863e+00 
36900 5.2966368073e+00 3.6636405569e-04 1.4594604190e+00 -2.5278595974e+00 1.4594604190e+00 2.5278595974e+00 
37000 5.2966371460e+00 3.5080167677e-04 1.4594478677e+00 -2.5278378579e+00 1.4594478677e+00 2.5278378579e+00 
37100 5.2966374803e+00 3.3566712277e-04 1.4594358494e+00 -2.5278170416e+00 1.4594358494e+00 2.5278170416e+00 
37200 5.2966378101e+00 3.2094936516e-04 1.4594243495e+00 -2.5277971232e+00 1.4594243495e+00 2.5277971232e+00 
37300 5.2966381353e+00 3.0663764202e-04 1.4594133538e+00 -2.5277780780e+00 1.4594133538e+00 2.5277780780e+00 
37400 5.2966384559e+00 2.9272145270e-04 1.4594028483e+00 -2.5277598820e+00 1.4594028483e+00 2.5277598820e+00 
37500 5.2966387721e+00 2.7919055248e-04 1.4593928195e+00 -2.5277425116e+00 1.4593928195e+00 2.5277425116e+00 
37600 5.2966390836e+00 2.6603494733e-04 1.4593832542e+00 -2.5277259440e+00 1.4593832542e+00 2.5277259440e+00 
37700 5.2966393906e+00 2.5324488873e-04 1.4593741396e+00 -2.5277101570e+00 1.4593741396e+00 2.5277101570e+00 
37800 5.2966396931e+00 2.4081086856e-04 1.4593654631e+00 -2.5276951289e+00 1.4593654631e+00 2.5276951289e+00 
37900 5.2966399910e+00 2.2872361408e-04 1.4593572126e+00 -2.5276808386e+00 1.4593572126e+00 2.5276808386e+00 
38000 5.2966402844e+00 2.1697408291e-04 1.4593493761e+00 -2.5276672655e+00 1.4593493761e+00 2.5276672655e+00 
38100 5.2966405733e+00 2.0555345814e-04 1.4593419422e+00 -2.5276543895e+00 1.4593419422e+00 2.5276543895e+00 
38200 5.2966408578e+00 1.9445314352e-04 1.4593348996e+00 -2.5276421913e+00 1.4593348996e+00 2.5276421913e+00 
38300 5.2966411378e+00 1.8366475863e-04 1.4593282372e+00 -2.5276306517e+00 1.4593282372e+00 2.5276306517e+00 
38400 5.2966414134e+00 1.7318013424e-04 1.4593219444e+00 -2.5276197523e+00 1.4593219444e+00 2.5276197523e+00 
38500 5.2966416846e+00 1.6299130767e-04 1.4593160108e+00 -2.5276094750e+00 1.4593160108e+00 2.5276094750e+00 
38600 5.2966419514e+00 1.5309051819e-04 1.4593104263e+00 -2.5275998024e+00 1.4593104263e+00 2.5275998024e+00 
38700 5.2966422139e+00 1.4347020256e-04 1.4593051810e+00 -2.5275907172e+00 1.4593051810e+00 2.5275907172e+00 
38800 5.2966424721e+00 1.3412299063e-04 1.4593002653e+00 -2.5275822030e+00 1.4593002653e+00 2.5275822030e+00 
38900 5.2966427261e+00 1.2504170095e-04 1.4592956698e+00 -2.5275742434e+00 1.4592956698e+00 2.5275742434e+00 
39000 5.2966429759e+00 1.1621933652e-04 1.4592913855e+00 -2.5275668228e+00 1.4592913855e+00 2.5275668228e+00 
39100 5.2966432215e+00 1.0764908055e-04 1.4592874035e+00 -2.5275599257e+00 1.4592874035e+00 2.5275599257e+00 
39200 5.2966434629e+00 9.9324292362e-05 1.4592837151e+00 -2.5275535372e+00 1.4592837151e+00 2.5275535372e+00 
39300 5.2966437003e+00 9.1238503277e-05 1.4592803119e+00 -2.5275476427e+00 1.4592803119e+00 2.5275476427e+00 
39400 5.2966439337e+00 8.3385412645e-05 1.4592771857e+00 -2.5275422280e+00 1.4592771857e+00 2.5275422280e+00 
39500 5.2966441630e+00 7.5758883897e-05 1.4592743287e+00 -2.5275372794e+00 1.4592743287e+00 2.5275372794e+00 
39600 5.2966443884e+00 6.8352940686e-05 1.4592717329e+00 -2.5275327834e+00 1.4592717329e+00 2.5275327834e+00 
39700 5.2966446101e+00 6.2740137378e-05 1.4592717329e+00 -2.5275327834e+00 1.4592717329e+00 2.5275327834e+00 
39800 5.2966448279e+00 5.7175461395e-05 1.4592717329e+00 -2.5275327834e+00 1.4592717329e+00 2.5275327834e+00 
39900 5.2966450418e+00 5.1657454537e-05 1.4592717329e+00 -2.5275327834e+00 1.4592717329e+00 2.5275327834e+00 
40000 5.2966452519e+00 4.6184728754e-05 1.4592717329e+00 -2.5275327834e+00 1.4592717329e+00 2.5275327834e+00 
40100 5.2966454582e+00 4.0755962794e-05 1.4592717329e+00 -2.5275327834e+00 1.4592717329e+00 2.5275327834e+00 
40200 5.2966456609e+00 3.5369899036e-05 1.4592717329e+00 -2.5275327834e+00 1.4592717329e+00 2.5275327834e+00 
40300 5.2966458599e+00 3.0025340487e-05 1.4592717329e+00 -2.5275327834e+00 1.4592717329e+00 2.5275327834e+00 
40400 5.2966460554e+00 2.4721147935e-05 1.4592717329e+00 -2.5275327834e+00 1.4592717329e+00 2.5275327834e+00 
40500 5.2966462474e+00 1.9456237249e-05 1.4592717329e+00 -2.5275327834e+00 1.4592717329e+00 2.5275327834e+00 
40600 5.2966464359e+00 1.4229576817e-05 1.4592717329e+00 -2.5275327834e+00 1.4592717329e+00 2.5275327834e+00 
40700 5.2966466210e+00 9.0401851215e-06 1.4592717329e+00 -2.5275327834e+00 1.4592717329e+00 2.5275327834e+00 
40800 5.2966468028e+00 3.8871284256e-06 1.4592717329e+00 -2.5275327834e+00 1.4592717329e+00 2.5275327834e+00 
40900 5.2966469813e+00 -1.2304814124e-06 1.4592717329e+00 -2.5275327834e+00 1.4592717329e+00 2.5275327834e+00 
41000 5.2966471566e+00 -6.3134890235e-06 1.4592717329e+00 -2.5275327834e+00 1.4592717329e+00 2.5275327834e+00 
41100 5.2966473287e+00 -1.1362697502e-05 1.4592717329e+00 -2.5275327834e+00 1.4592717329e+00 2.5275327834e+00 
41200 5.2966474977e+00 -1.6378870291e-05 1.4592717329e+00 -2.5275327834e+00 1.4592717329e+00 2.5275327834e+00 
41300 5.2966476636e+00 -2.1362732967e-05 1.4592717329e+00 -2.5275327834e+00 1.4592717329e+00 2.5275327834e+00 
41400 5.2966478266e+00 -2.6314974942e-05 1.4592717329e+00 -2.5275327834e+00 1.4592717329e+00 2.5275327834e+00 
41500 5.2966479865e+00 -3.1236251091e-05 1.4592717329e+00 -2.5275327834e+00 1.4592717329e+00 2.5275327834e+00 
41600 5.2966481436e+00 -3.6127183285e-05 1.4592717329e+00 -2.5275327834e+00 1.4592717329e+00 2.5275327834e+00 
41700 5.2966482979e+00 -4.0988361872e-05 1.4592717329e+00 -2.5275327834e+00 1.4592717329e+00 2.5275327834e+00 
41800 5.2966484493e+00 -4.5820347071e-05 1.4592717329e+00 -2.5275327834e+00 1.4592717329e+00 2.5275327834e+00 
41900 5.2966485980e+00 -5.0623670316e-05 1.4592717329e+00 -2.5275327834e+00 1.4592717329e+00 2.5275327834e+00 
42000 5.2966487441e+00 -5.5398835528e-05 1.4592717329e+00 -2.5275327834e+00 1.4592717329e+00 2.5275327834e+00 
42100 5.2966488874e+00 -6.0146320334e-05 1.4592717329e+00 -2.5275327834e+00 1.4592717329e+00 2.5275327834e+00 
42200 5.2966490282e+00 -6.4866577231e-05 1.4592717329e+00 -2.5275327834e+00 1.4592717329e+00 2.5275327834e+00 
42300 5.2966491665e+00 -6.9560034699e-05 1.4592717329e+00 -2.5275327834e+00 1.4592717329e+00 2.5275327834e+00 
42400 5.2966493023e+00 -7.4227098258e-05 1.4592717329e+00 -2.5275327834e+00 1.4592717329e+00 2.5275327834e+00 
42500 5.2966494353e+00 -7.7151226252e-05 1.4592742762e+00 -2.5275371885e+00 1.4592742762e+00 2.5275371885e+00 
42600 5.2966495659e+00 -7.9976583495e-05 1.4592769197e+00 -2.5275417672e+00 1.4592769197e+00 2.5275417672e+00 
42700 5.2966496941e+00 -8.2705817846e-05 1.4592796600e+00 -2.5275465135e+00 1.4592796600e+00 2.5275465135e+00 
42800 5.2966498199e+00 -8.5341500581e-05 1.4592824937e+00 -2.5275514218e+00 1.4592824937e+00 2.5275514218e+00 
42900 5.2966499434e+00 -8.7886128758e-05 1.4592854178e+00 -2.5275564864e+00 1.4592854178e+00 2.5275564864e+00 
43000 5.2966500646e+00 -9.0342127519e-05 1.4592884291e+00 -2.5275617021e+00 1.4592884291e+00 2.5275617021e+00 
43100 5.2966501836e+00 -9.2711852321e-05 1.4592915245e+00 -2.5275670635e+00 1.4592915245e+00 2.5275670635e+00 
43200 5.2966503004e+00 -9.4997591091e-05 1.4592947011e+00 -2.5275725656e+00 1.4592947011e+00 2.5275725656e+00 
43300 5.2966504151e+00 -9.7201566326e-05 1.4592979560e+00 -2.5275782033e+00 1.4592979560e+00 2.5275782033e+00 
43400 5.2966505277e+00 -9.9325937115e-05 1.4593012865e+00 -2.5275839717e+00 1.4593012865e+00 2.5275839717e+00 
43500 5.2966506382e+00 -1.0137280111e-04 1.4593046897e+00 -2.5275898662e+00 1.4593046897e+00 2.5275898662e+00 
43600 5.2966507467e+00 -1.0334419643e-04 1.4593081630e+00 -2.5275958822e+00 1.4593081630e+00 2.5275958822e+00 
43700 5.2966508532e+00 -1.0524210350e-04 1.4593117039e+00 -2.5276020152e+00 1.4593117039e+00 2.5276020152e+00 
43800 5.2966509577e+00 -1.0706844687e-04 1.4593153097e+00 -2.5276082607e+00 1.4593153097e+00 2.5276082607e+00 
43900 5.2966510604e+00 -1.0882509691e-04 1.4593189782e+00 -2.5276146147e+00 1.4593189782e+00 2.5276146147e+00 
44000 5.2966511612e+00 -1.1051387150e-04 1.4593227068e+00 -2.5276210729e+00 1.4593227068e+00 2.5276210729e+00 
44100 5.2966512602e+00 -1.1213653769e-04 1.4593264933e+00 -2.5276276312e+00 1.4593264933e+00 2.5276276312e+00 
44200 5.2966513573e+00 -1.1369481323e-04 1.4593303354e+00 -2.5276342859e+00 1.4593303354e+00 2.5276342859e+00 
44300 5.2966514528e+00 -1.1519036814e-04 1.4593342308e+00 -2.5276410330e+00 1.4593342308e+00 2.5276410330e+00 
44400 5.2966515465e+00 -1.1662482616e-04 1.4593381775e+00 -2.5276478688e+00 1.4593381775e+00 2.5276478688e+00 
44500 5.2966516385e+00 -1.1799976621e-04 1.4593421733e+00 -2.5276547898e+00 1.4593421733e+00 2.5276547898e+00 
44600 5.2966517288e+00 -1.1931672377e-04 1.4593462162e+00 -2.5276617923e+00 1.4593462162e+00 2.5276617923e+00 
44700 5.2966518176e+00 -1.2057719222e-04 1.4593503042e+00 -2.5276688730e+00 1.4593503042e+00 2.5276688730e+00 
44800 5.2966519047e+00 -1.2178262414e-04 1.4593544354e+00 -2.5276760284e+00 1.4593544354e+00 2.5276760284e+00 
44900 5.2966519903e+00 -1.2293443261e-04 1.4593586079e+00 -2.5276832554e+00 1.4593586079e+00 2.5276832554e+00 
45000 5.2966520744e+00 -1.2403399238e-04 1.4593628199e+00 -2.5276905507e+00 1.4593628199e+00 2.5276905507e+00 
45100 5.2966521570e+00 -1.2508264111e-04 1.4593670695e+00 -2.5276979112e+00 1.4593670695e+00 2.5276979112e+00 
45200 5.2966522381e+00 -1.2608168047e-04 1.4593713550e+00 -2.5277053339e+00 1.4593713550e+00 2.5277053339e+00 
45300 5.2966523178e+00 -1.2703237729e-04 1.4593756747e+00 -2.5277128159e+00 1.4593756747e+00 2.5277128159e+00 
45400 5.2966523961e+00 -1.2793596460e-04 1.4593800270e+00 -2.5277203543e+00 1.4593800270e+00 2.5277203543e+00 
45500 5.2966524730e+00 -1.2879364272e-04 1.4593844102e+00 -2.5277279463e+00 1.4593844102e+00 2.5277279463e+00 
45600 5.2966525485e+00 -1.2960658021e-04 1.4593888228e+00 -2.5277355891e+00 1.4593888228e+00 2.5277355891e+00 
45700 5.2966526228e+00 -1.3037591490e-04 1.4593932633e+00 -2.5277432802e+00 1.4593932633e+00 2.5277432802e+00 
45800 5.2966526957e+00 -1.3110275481e-04 1.4593977300e+00 -2.5277510169e+00 1.4593977300e+00 2.5277510169e+00 
45900 5.2966527674e+00 -1.3178817907e-04 1.4594022217e+00 -2.5277587967e+00 1.4594022217e+00 2.5277587967e+00 
46000 5.2966528379e+00 -1.3243323880e-04 1.4594067369e+00 -2.5277666172e+00 1.4594067369e+00 2.5277666172e+00 
46100 5.2966529071e+00 -1.3303895799e-04 1.4594112741e+00 -2.5277744759e+00 1.4594112741e+00 2.5277744759e+00 
46200 5.2966529752e+00 -1.3360633429e-04 1.4594158321e+00 -2.5277823705e+00 1.4594158321e+00 2.5277823705e+00 
46300 5.2966530421e+00 -1.3413633986e-04 1.4594204095e+00 -2.5277902988e+00 1.4594204095e+00 2.5277902988e+00 
46400 5.2966531078e+00 -1.3462992212e-04 1.4594250050e+00 -2.5277982585e+00 1.4594250050e+00 2.5277982585e+00 
46500 5.2966531725e+00 -1.3508800449e-04 1.4594296174e+00 -2.5278062475e+00 1.4594296174e+00 2.5278062475e+00 
46600 5.2966532360e+00 -1.3551148716e-04 1.4594342455e+00 -2.5278142636e+00 1.4594342455e+00 2.5278142636e+00 
46700 5.2966532985e+00 -1.3590124775e-04 1.4594388881e+00 -2.5278223048e+00 1.4594388881e+00 2.5278223048e+00 
46800 5.2966533599e+00 -1.3625814201e-04 1.4594435441e+00 -2.5278303691e+00 1.4594435441e+00 2.5278303691e+00 
46900 5.2966534203e+00 -1.3658300449e-04 1.4594482122e+00 -2.5278384546e+00 1.4594482122e+00 2.5278384546e+00 
47000 5.2966534797e+00 -1.3687664915e-04 1.4594528915e+00 -2.5278465594e+00 1.4594528915e+00 2.5278465594e+00 
47100 5.2966535381e+00 -1.3713987001e-04 1.4594575808e+00 -2.5278546815e+00 1.4594575808e+00 2.5278546815e+00 
47200 5.2966535956e+00 -1.3737344172e-04 1.4594622792e+00 -2.5278628192e+00 1.4594622792e+00 2.5278628192e+00 
47300 5.2966536520e+00 -1.3757812012e-04 1.4594669855e+00 -2.5278709708e+00 1.4594669855e+00 2.5278709708e+00 
47400 5.2966537076e+00 -1.3775464286e-04 1.4594716988e+00 -2.5278791345e+00 1.4594716988e+00 2.5278791345e+00 
47500 5.2966537623e+00 -1.3790372986e-04 1.4594764181e+00 -2.5278873086e+00 1.4594764181e+00 2.5278873086e+00 
47600 5.2966538160e+00 -1.3802608390e-04 1.4594811425e+00 -2.5278954915e+00 1.4594811425e+00 2.5278954915e+00 
47700 5.2966538689e+00 -1.3812239107e-04 1.4594858711e+00 -2.5279036817e+00 1.4594858711e+00 2.5279036817e+00 
47800 5.2966539210e+00 -1.3819332130e-04 1.4594906030e+00 -2.5279118776e+00 1.4594906030e+00 2.5279118776e+00 
47900 5.2966539722e+00 -1.3823952879e-04 1.4594953373e+00 -2.5279200776e+00 1.4594953373e+00 2.5279200776e+00 
48000 5.2966540226e+00 -1.3826165249e-04 1.4595000732e+00 -2.5279282804e+00 1.4595000732e+00 2.5279282804e+00 
48100 5.2966540722e+00 -1.3826031655e-04 1.4595048098e+00 -2.5279364845e+00 1.4595048098e+00 2.5279364845e+00 
48200 5.2966541210e+00 -1.3823613070e-04 1.4595095464e+00 -2.5279446884e+00 1.4595095464e+00 2.5279446884e+00 
48300 5.2966541690e+00 -1.3818969072e-04 1.4595142821e+00 -2.5279528909e+00 1.4595142821e+00 2.5279528909e+00 
48400 5.2966542163e+00 -1.3812157877e-04 1.4595190162e+00 -2.5279610906e+00 1.4595190162e+00 2.5279610906e+00 
48500 5.2966542628e+00 -1.3803236384e-04 1.4595237479e+00 -2.5279692862e+00 1.4595237479e+00 2.5279692862e+00 
48600 5.2966543086e+00 -1.3792260206e-04 1.4595284766e+00 -2.5279774766e+00 1.4595284766e+00 2.5279774766e+00 
48700 5.2966543537e+00 -1.3779283711e-04 1.4595332015e+00 -2.5279856603e+00 1.4595332015e+00 2.5279856603e+00 
48800 5.2966543981e+00 -1.3764360053e-04 1.4595379219e+00 -2.5279938364e+00 1.4595379219e+00 2.5279938364e+00 
48900 5.2966544418e+00 -1.3747541207e-04 1.4595426373e+00 -2.5280020036e+00 1.4595426373e+00 2.5280020036e+00 
49000 5.2966544848e+00 -1.3728878000e-04 1.4595473468e+00 -2.5280101607e+00 1.4595473468e+00 2.5280101607e+00 
49100 5.2966545272e+00 -1.3708420143e-04 1.4595520499e+00 -2.5280183068e+00 1.4595520499e+00 2.5280183068e+00 
49200 5.2966545690e+00 -1.3686216263e-04 1.4595567460e+00 -2.5280264407e+00 1.4595567460e+00 2.5280264407e+00 
49300 5.2966546101e+00 -1.3662313927e-04 1.4595614345e+00 -2.5280345614e+00 1.4595614345e+00 2.5280345614e+00 
49400 5.2966546506e+00 -1.3636759676e-04 1.4595661148e+00 -2.5280426679e+00 1.4595661148e+00 2.5280426679e+00 
49500 5.2966546904e+00 -1.3609599048e-04 1.4595707863e+00 -2.5280507592e+00 1.4595707863e+00 2.5280507592e+00 
49600 5.2966547297e+00 -1.3580876606e-04 1.4595754485e+00 -2.5280588343e+00 1.4595754485e+00 2.5280588343e+00 
49700 5.2966547684e+00 -1.3550635963e-04 1.4595801009e+00 -2.5280668924e+00 1.4595801009e+00 2.5280668924e+00 
49800 5.2966548065e+00 -1.3518919807e-04 1.4595847428e+00 -2.5280749325e+00 1.4595847428e+00 2.5280749325e+00 
49900 5.2966548441e+00 -1.3485769922e-04 1.4595893739e+00 -2.5280829538e+00 1.4595893739e+00 2.5280829538e+00 
50000 5.2966548811e+00 -1.3451227216e-04 1.4595939936e+00 -2.5280909554e+00 1.4595939936e+00 2.5280909554e+00 
50100 5.2966549176e+00 -1.3415331738e-04 1.4595986015e+00 -2.5280989365e+00 1.4595986015e+00 2.5280989365e+00 
50200 5.2966549535e+00 -1.3378122702e-04 1.4596031971e+00 -2.5281068962e+00 1.4596031971e+00 2.5281068962e+00 
50300 5.2966549889e+00 -1.3339638505e-04 1.4596077799e+00 -2.5281148338e+00 1.4596077799e+00 2.5281148338e+00 
50400 5.2966550238e+00 -1.3299916753e-04 1.4596123495e+00 -2.5281227486e+00 1.4596123495e+00 2.5281227486e+00 
50500 5.2966550582e+00 -1.3258994273e-04 1.4596169054e+00 -2.5281306398e+00 1.4596169054e+00 2.5281306398e+00 
50600 5.2966550922e+00 -1.3216907136e-04 1.4596214474e+00 -2.5281385067e+00 1.4596214474e+00 2.5281385067e+00 
50700 5.2966551256e+00 -1.3173690672e-04 1.4596259749e+00 -2.5281463486e+00 1.4596259749e+00 2.5281463486e+00 
50800 5.2966551585e+00 -1.3129379492e-04 1.4596304876e+00 -2.5281541648e+00 1.4596304876e+00 2.5281541648e+00 
50900 5.2966551910e+00 -1.3084007499e-04 1.4596349851e+00 -2.5281619547e+00 1.4596349851e+00 2.5281619547e+00 
51000 5.2966552230e+00 -1.3037607910e-04 1.4596394670e+00 -2.5281697176e+00 1.4596394670e+00 2.5281697176e+00 
51100 5.2966552546e+00 -1.2990213266e-04 1.4596439331e+00 -2.5281774530e+00 1.4596439331e+00 2.5281774530e+00 
51200 5.2966552857e+00 -1.2941855453e-04 1.4596483829e+00 -2.5281851603e+00 1.4596483829e+00 2.5281851603e+00 
51300 5.2966553164e+00 -1.2892565711e-04 1.4596528161e+00 -2.5281928389e+00 1.4596528161e+00 2.5281928389e+00 
51400 5.2966553467e+00 -1.2842374654e-04 1.4596572324e+00 -2.5282004881e+00 1.4596572324e+00 2.5282004881e+00 
51500 5.2966553766e+00 -1.2791312278e-04 1.4596616315e+00 -2.5282081076e+00 1.4596616315e+00 2.5282081076e+00 
51600 5.2966554060e+00 -1.2739407979e-04 1.4596660131e+00 -2.5282156968e+00 1.4596660131e+00 2.5282156968e+00 
51700 5.2966554351e+00 -1.2686690564e-04 1.4596703769e+00 -2.5282232551e+00 1.4596703769e+00 2.5282232551e+00 
51800 5.2966554637e+00 -1.2633188263e-04 1.4596747227e+00 -2.5282307822e+00 1.4596747227e+00 2.5282307822e+00 
51900 5.2966554920e+00 -1.2578928741e-04 1.4596790501e+00 -2.5282382774e+00 1.4596790501e+00 2.5282382774e+00 
52000 5.2966555198e+00 -1.2523939111e-04 1.4596833589e+00 -2.5282457405e+00 1.4596833589e+00 2.5282457405e+00 
52100 5.2966555473e+00 -1.2468245946e-04 1.4596876488e+00 -2.5282531709e+00 1.4596876488e+00 2.5282531709e+00 
52200 5.2966555744e+00 -1.2411875286e-04 1.4596919197e+00 -2.5282605683e+00 1.4596919197e+00 2.5282605683e+00 
52300 5.2966556012e+00 -1.2354852653e-04 1.4596961712e+00 -2.5282679322e+00 1.4596961712e+00 2.5282679322e+00 
52400 5.2966556276e+00 -1.2297203061e-04 1.4597004032e+00 -2.5282752622e+00 1.4597004032e+00 2.5282752622e+00 
52500 5.2966556536e+00 -1.2238951022e-04 1.4597046155e+00 -2.5282825580e+00 1.4597046155e+00 2.5282825580e+00 
52600 5.2966556794e+00 -1.2180120560e-04 1.4597088077e+00 -2.5282898192e+00 1.4597088077e+00 2.5282898192e+00 
52700 5.2966557047e+00 -1.2120735219e-04 1.4597129798e+00 -2.5282970455e+00 1.4597129798e+00 2.5282970455e+00 
52800 5.2966557297e+00 -1.2060818072e-04 1.4597171316e+00 -2.5283042366e+00 1.4597171316e+00 2.5283042366e+00 
52900 5.2966557544e+00 -1.2000391728e-04 1.4597212628e+00 -2.5283113921e+00 1.4597212628e+00 2.5283113921e+00 
53000 5.2966557788e+00 -1.1939478346e-04 1.4597253733e+00 -2.5283185117e+00 1.4597253733e+00 2.5283185117e+00 
53100 5.2966558029e+00 -1.1878099638e-04 1.4597294629e+00 -2.5283255951e+00 1.4597294629e+00 2.5283255951e+00 
53200 5.2966558266e+00 -1.1816276880e-04 1.4597335315e+00 -2.5283326422e+00 1.4597335315e+00 2.5283326422e+00 
53300 5.2966558500e+00 -1.1754030917e-04 1.4597375790e+00 -2.5283396525e+00 1.4597375790e+00 2.5283396525e+00 
53400 5.2966558732e+00 -1.1691382176e-04 1.4597416050e+00 -2.5283466258e+00 1.4597416050e+00 2.5283466258e+00 
53500 5.2966558960e+00 -1.1628350668e-04 1.4597456096e+00 -2.5283535620e+00 1.4597456096e+00 2.5283535620e+00 
53600 5.2966559185e+00 -1.1564955999e-04 1.4597495927e+00 -2.5283604608e+00 1.4597495927e+00 2.5283604608e+00 
53700 5.2966559408e+00 -1.1501217376e-04 1.4597535539e+00 -2.5283673219e+00 1.4597535539e+00 2.5283673219e+00 
53800 5.2966559628e+00 -1.1437153611e-04 1.4597574934e+00 -2.5283741453e+00 1.4597574934e+00 2.5283741453e+00 
53900 5.2966559844e+00 -1.1372783135e-04 1.4597614109e+00 -2.5283809305e+00 1.4597614109e+00 2.5283809305e+00 
54000 5.2966560059e+00 -1.1308123995e-04 1.4597653063e+00 -2.5283876776e+00 1.4597653063e+00 2.5283876776e+00 
54100 5.2966560270e+00 -1.1243193871e-04 1.4597691796e+00 -2.5283943863e+00 1.4597691796e+00 2.5283943863e+00 
54200 5.2966560479e+00 -1.1178010072e-04 1.4597730306e+00 -2.5284010565e+00 1.4597730306e+00 2.5284010565e+00 
54300 5.2966560685e+00 -1.1112589550e-04 1.4597768593e+00 -2.5284076879e+00 1.4597768593e+00 2.5284076879e+00 
54400 5.2966560888e+00 -1.1046948901e-04 1.4597806655e+00 -2.5284142806e+00 1.4597806655e+00 2.5284142806e+00 
54500 5.2966561089e+00 -1.0981104374e-04 1.4597844493e+00 -2.5284208343e+00 1.4597844493e+00 2.5284208343e+00 
54600 5.2966561287e+00 -1.0915071876e-04 1.4597882105e+00 -2.5284273489e+00 1.4597882105e+00 2.5284273489e+00 
54700 5.2966561483e+00 -1.0848866974e-04 1.4597919491e+00 -2.5284338243e+00 1.4597919491e+00 2.5284338243e+00 
54800 5.2966561677e+00 -1.0782504908e-04 1.4597956650e+00 -2.5284402604e+00 1.4597956650e+00 2.5284402604e+00 
54900 5.2966561868e+00 -1.0716000589e-04 1.4597993581e+00 -2.5284466572e+00 1.4597993581e+00 2.5284466572e+00 
55000 5.2966562057e+00 -1.0649368608e-04 1.4598030285e+00 -2.5284530144e+00 1.4598030285e+00 2.5284530144e+00 
55100 5.2966562243e+00 -1.0582623239e-04 1.4598066760e+00 -2.5284593321e+00 1.4598066760e+00 2.5284593321e+00 
55200 5.2966562427e+00 -1.0515778446e-04 1.4598103007e+00 -2.5284656103e+00 1.4598103007e+00 2.5284656103e+00 
55300 5.2966562609e+00 -1.0448847889e-04 1.4598139025e+00 -2.5284718487e+00 1.4598139025e+00 2.5284718487e+00 
55400 5.2966562788e+00 -1.0381844925e-04 1.4598174813e+00 -2.5284780474e+00 1.4598174813e+00 2.5284780474e+00 
55500 5.2966562966e+00 -1.0314782615e-04 1.4598210372e+00 -2.5284842064e+00 1.4598210372e+00 2.5284842064e+00 
55600 5.2966563141e+00 -1.0247673729e-04 1.4598245701e+00 -2.5284903255e+00 1.4598245701e+00 2.5284903255e+00 
55700 5.2966563314e+00 -1.0180530750e-04 1.4598280800e+00 -2.5284964048e+00 1.4598280800e+00 2.5284964048e+00 
55800 5.2966563485e+00 -1.0113365877e-04 1.4598315669e+00 -2.5285024443e+00 1.4598315669e+00 2.5285024443e+00 
55900 5.2966563654e+00 -1.0046191033e-04 1.4598350308e+00 -2.5285084439e+00 1.4598350308e+00 2.5285084439e+00 
56000 5.2966563820e+00 -9.9790178669e-05 1.4598384716e+00 -2.5285144037e+00 1.4598384716e+00 2.5285144037e+00 
56100 5.2966563985e+00 -9.9118577567e-05 1.4598418895e+00 -2.5285203236e+00 1.4598418895e+00 2.5285203236e+00 
56200 5.2966564148e+00 -9.8447218159e-05 1.4598452843e+00 -2.5285262036e+00 1.4598452843e+00 2.5285262036e+00 
56300 5.2966564309e+00 -9.7776208970e-05 1.4598486562e+00 -2.5285320438e+00 1.4598486562e+00 2.5285320438e+00 
56400 5.2966564468e+00 -9.7105655949e-05 1.4598520050e+00 -2.5285378442e+00 1.4598520050e+00 2.5285378442e+00 
56500 5.2966564625e+00 -9.6435662516e-05 1.4598553309e+00 -2.5285436048e+00 1.4598553309e+00 2.5285436048e+00 
56600 5.2966564780e+00 -9.5766329597e-05 1.4598586338e+00 -2.5285493256e+00 1.4598586338e+00 2.5285493256e+00 
56700 5.2966564933e+00 -9.5097755666e-05 1.4598619138e+00 -2.5285550067e+00 1.4598619138e+00 2.5285550067e+00 
56800 5.2966565084e+00 -9.4430036780e-05 1.4598651709e+00 -2.5285606481e+00 1.4598651709e+00 2.5285606481e+00 
56900 5.2966565234e+00 -9.3763266617e-05 1.4598684051e+00 -2.5285662499e+00 1.4598684051e+00 2.5285662499e+00 
57000 5.2966565382e+00 -9.3097536519e-05 1.4598716164e+00 -2.5285718122e+00 1.4598716164e+00 2.5285718122e+00 
57100 5.2966565528e+00 -9.2432935515e-05 1.4598748050e+00 -2.5285773349e+00 1.4598748050e+00 2.5285773349e+00 
57200 5.2966565672e+00 -9.1769550377e-05 1.4598779708e+00 -2.5285828182e+00 1.4598779708e+00 2.5285828182e+00 
57300 5.2966565814e+00 -9.1107465634e-05 1.4598811138e+00 -2.5285882622e+00 1.4598811138e+00 2.5285882622e+00 
57400 5.2966565955e+00 -9.0446763624e-05 1.4598842342e+00 -2.5285936668e+00 1.4598842342e+00 2.5285936668e+00 
57500 5.2966566094e+00 -8.9787524518e-05 1.4598873319e+00 -2.5285990322e+00 1.4598873319e+00 2.5285990322e+00 
57600 5.2966566232e+00 -8.9129826360e-05 1.4598904071e+00 -2.5286043586e+00 1.4598904071e+00 2.5286043586e+00 
57700 5.2966566368e+00 -8.8473745100e-05 1.4598934597e+00 -2.5286096459e+00 1.4598934597e+00 2.5286096459e+00 
57800 5.2966566502e+00 -8.7819354625e-05 1.4598964899e+00 -2.5286148942e+00 1.4598964899e+00 2.5286148942e+00 
57900 5.2966566635e+00 -8.7166726793e-05 1.4598994976e+00 -2.5286201038e+00 1.4598994976e+00 2.5286201038e+00 
58000 5.2966566766e+00 -8.6515931466e-05 1.4599024830e+00 -2.5286252746e+00 1.4599024830e+00 2.5286252746e+00 
58100 5.2966566896e+00 -8.5867036541e-05 1.4599054460e+00 -2.5286304068e+00 1.4599054460e+00 2.5286304068e+00 
58200 5.2966567024e+00 -8.5220107984e-05 1.4599083869e+00 -2.5286355005e+00 1.4599083869e+00 2.5286355005e+00 
58300 5.2966567150e+00 -8.4575209862e-05 1.4599113055e+00 -2.5286405558e+00 1.4599113055e+00 2.5286405558e+00 
58400 5.2966567275e+00 -8.3932404367e-05 1.4599142021e+00 -2.5286455728e+00 1.4599142021e+00 2.5286455728e+00 
58500 5.2966567399e+00 -8.3291751854e-05 1.4599170767e+00 -2.5286505517e+00 1.4599170767e+00 2.5286505517e+00 
58600 5.2966567521e+00 -8.2653310871e-05 1.4599199293e+00 -2.5286554926e+00 1.4599199293e+00 2.5286554926e+00 
58700 5.2966567642e+00 -8.2017138183e-05 1.4599227601e+00 -2.5286603956e+00 1.4599227601e+00 2.5286603956e+00 
58800 5.2966567761e+00 -8.1383288811e-05 1.4599255690e+00 -2.5286652608e+00 1.4599255690e+00 2.5286652608e+00 
58900 5.2966567879e+00 -8.0751816048e-05 1.4599283563e+00 -2.5286700885e+00 1.4599283563e+00 2.5286700885e+00 
59000 5.2966567996e+00 -8.0122771504e-05 1.4599311219e+00 -2.5286748786e+00 1.4599311219e+00 2.5286748786e+00 
59100 5.2966568111e+00 -7.9496205118e-05 1.4599338659e+00 -2.5286796315e+00 1.4599338659e+00 2.5286796315e+00 
59200 5.2966568225e+00 -7.8872165203e-05 1.4599365885e+00 -2.5286843472e+00 1.4599365885e+00 2.5286843472e+00 
59300 5.2966568337e+00 -7.8250698459e-05 1.4599392898e+00 -2.5286890258e+00 1.4599392898e+00 2.5286890258e+00 
59400 5.2966568449e+00 -7.7631850011e-05 1.4599419697e+00 -2.5286936676e+00 1.4599419697e+00 2.5286936676e+00 
59500 5.2966568559e+00 -7.7015663430e-05 1.4599446284e+00 -2.5286982727e+00 1.4599446284e+00 2.5286982727e+00 
59600 5.2966568667e+00 -7.6402180764e-05 1.4599472660e+00 -2.5287028412e+00 1.4599472660e+00 2.5287028412e+00 
59700 5.2966568775e+00 -7.5791442567e-05 1.4599498827e+00 -2.5287073733e+00 1.4599498827e+00 2.5287073733e+00 
59800 5.2966568881e+00 -7.5183487914e-05 1.4599524783e+00 -2.5287118691e+00 1.4599524783e+00 2.5287118691e+00 
59900 5.2966568986e+00 -7.4578354440e-05 1.4599550532e+00 -2.5287163289e+00 1.4599550532e+00 2.5287163289e+00 
60000 5.2966569089e+00 -7.3976078363e-05 1.4599576073e+00 -2.5287207528e+00 1.4599576073e+00 2.5287207528e+00 
60100 5.2966569192e+00 -7.3376694503e-05 1.4599601408e+00 -2.5287251410e+00 1.4599601408e+00 2.5287251410e+00 
60200 5.2966569293e+00 -7.2780236314e-05 1.4599626538e+00 -2.5287294935e+00 1.4599626538e+00 2.5287294935e+00 
60300 5.2966569393e+00 -7.2186735906e-05 1.4599651463e+00 -2.5287338107e+00 1.4599651463e+00 2.5287338107e+00 
60400 5.2966569492e+00 -7.1596224073e-05 1.4599676186e+00 -2.5287380927e+00 1.4599676186e+00 2.5287380927e+00 
60500 5.2966569590e+00 -7.1008730311e-05 1.4599700705e+00 -2.5287423397e+00 1.4599700705e+00 2.5287423397e+00 
60600 5.2966569687e+00 -7.0424282848e-05 1.4599725024e+00 -2.5287465518e+00 1.4599725024e+00 2.5287465518e+00 
60700 5.2966569785e+00 -7.1477701853e-05 1.4599725024e+00 -2.5287465518e+00 1.4599725024e+00 2.5287465518e+00 
60800 5.2966569879e+00 -7.0866533804e-05 1.4599749503e+00 -2.5287507917e+00 1.4599749503e+00 2.5287507917e+00 
60900 5.2966569973e+00 -7.0258912370e-05 1.4599773773e+00 -2.5287549954e+00 1.4599773773e+00 2.5287549954e+00 
61000 5.2966570067e+00 -7.1285861741e-05 1.4599773773e+00 -2.5287549954e+00 1.4599773773e+00 2.5287549954e+00 
61100 5.2966570159e+00 -7.0652613371e-05 1.4599798186e+00 -2.5287592239e+00 1.4599798186e+00 2.5287592239e+00 
61200 5.2966570251e+00 -7.1663582755e-05 1.4599798186e+00 -2.5287592239e+00 1.4599798186e+00 2.5287592239e+00 
61300 5.2966570340e+00 -7.1005490013e-05 1.4599822729e+00 -2.5287634748e+00 1.4599822729e+00 2.5287634748e+00 
61400 5.2966570428e+00 -7.0351951805e-05 1.4599847046e+00 -2.5287676867e+00 1.4599847046e+00 2.5287676867e+00 
61500 5.2966570518e+00 -7.1336218053e-05 1.4599847046e+00 -2.5287676867e+00 1.4599847046e+00 2.5287676867e+00 
61600 5.2966570604e+00 -7.0659037015e-05 1.4599871477e+00 -2.5287719181e+00 1.4599871477e+00 2.5287719181e+00 
61700 5.2966570691e+00 -7.1627301680e-05 1.4599871477e+00 -2.5287719181e+00 1.4599871477e+00 2.5287719181e+00 
61800 5.2966570775e+00 -7.0927309862e-05 1.4599896007e+00 -2.5287761669e+00 1.4599896007e+00 2.5287761669e+00 
61900 5.2966570858e+00 -7.0232891337e-05 1.4599920297e+00 -2.5287803741e+00 1.4599920297e+00 2.5287803741e+00 
62000 5.2966570942e+00 -7.1174585382e-05 1.4599920297e+00 -2.5287803741e+00 1.4599920297e+00 2.5287803741e+00 
62100 5.2966571024e+00 -7.0458603660e-05 1.4599944672e+00 -2.5287845960e+00 1.4599944672e+00 2.5287845960e+00 
62200 5.2966571106e+00 -7.1384474952e-05 1.4599944672e+00 -2.5287845960e+00 1.4599944672e+00 2.5287845960e+00 
62300 5.2966571185e+00 -7.0647776975e-05 1.4599969119e+00 -2.5287888303e+00 1.4599969119e+00 2.5287888303e+00 
62400 5.2966571266e+00 -7.1557822961e-05 1.4599969119e+00 -2.5287888303e+00 1.4599969119e+00 2.5287888303e+00 
62500 5.2966571343e+00 -7.0801270040e-05 1.4599993625e+00 -2.5287930749e+00 1.4599993625e+00 2.5287930749e+00 
62600 5.2966571420e+00 -7.0051753474e-05 1.4600017872e+00 -2.5287972746e+00 1.4600017872e+00 2.5287972746e+00 
62700 5.2966571498e+00 -7.0935669785e-05 1.4600017872e+00 -2.5287972746e+00 1.4600017872e+00 2.5287972746e+00 
62800 5.2966571572e+00 -7.0167560028e-05 1.4600042165e+00 -2.5288014823e+00 1.4600042165e+00 2.5288014823e+00 
62900 5.2966571648e+00 -7.1036042078e-05 1.4600042165e+00 -2.5288014823e+00 1.4600042165e+00 2.5288014823e+00 
63000 5.2966571721e+00 -7.0250179022e-05 1.4600066492e+00 -2.5288056959e+00 1.4600066492e+00 2.5288056959e+00 
63100 5.2966571796e+00 -7.1103289958e-05 1.4600066492e+00 -2.5288056959e+00 1.4600066492e+00 2.5288056959e+00 
63200 5.2966571867e+00 -7.0300516730e-05 1.4600090843e+00 -2.5288099135e+00 1.4600090843e+00 2.5288099135e+00 
63300 5.2966571940e+00 -7.1138342198e-05 1.4600090843e+00 -2.5288099135e+00 1.4600090843e+00 2.5288099135e+00 
63400 5.2966572009e+00 -7.0319501344e-05 1.4600115205e+00 -2.5288141331e+00 1.4600115205e+00 2.5288141331e+00 
63500 5.2966572080e+00 -7.1142146465e-05 1.4600115205e+00 -2.5288141331e+00 1.4600115205e+00 2.5288141331e+00 
63600 5.2966572148e+00 -7.0308076684e-05 1.4600139569e+00 -2.5288183530e+00 1.4600139569e+00 2.5288183530e+00 
63700 5.2966572218e+00 -7.1115663392e-05 1.4600139569e+00 -2.5288183530e+00 1.4600139569e+00 2.5288183530e+00 
63800 5.2966572284e+00 -7.0267196724e-05 1.4600163923e+00 -2.5288225714e+00 1.4600163923e+00 2.5288225714e+00 
63900 5.2966572352e+00 -7.1059861416e-05 1.4600163923e+00 -2.5288225714e+00 1.4600163923e+00 2.5288225714e+00 
64000 5.2966572417e+00 -7.0197820853e-05 1.4600188258e+00 -2.5288267864e+00 1.4600188258e+00 2.5288267864e+00 
64100 5.2966572483e+00 -7.0975712313e-05 1.4600188258e+00 -2.5288267864e+00 1.4600188258e+00 2.5288267864e+00 
64200 5.2966572547e+00 -7.0100909779e-05 1.4600212565e+00 -2.5288309964e+00 1.4600212565e+00 2.5288309964e+00 
64300 5.2966572611e+00 -7.0864187357e-05 1.4600212565e+00 -2.5288309964e+00 1.4600212565e+00 2.5288309964e+00 
64400 5.2966572673e+00 -6.9977422004e-05 1.4600236833e+00 -2.5288351997e+00 1.4600236833e+00 2.5288351997e+00 
64500 5.2966572737e+00 -7.0726254012e-05 1.4600236833e+00 -2.5288351997e+00 1.4600236833e+00 2.5288351997e+00 
64600 5.2966572797e+00 -6.9828310797e-05 1.4600261054e+00 -2.5288393949e+00 1.4600261054e+00 2.5288393949e+00 
64700 5.2966572859e+00 -7.0562873097e-05 1.4600261054e+00 -2.5288393949e+00 1.4600261054e+00 2.5288393949e+00 
64800 5.2966572920e+00 -7.1292962256e-05 1.4600261054e+00 -2.5288393949e+00 1.4600261054e+00 2.5288393949e+00 
64900 5.2966572979e+00 -7.0363101276e-05 1.4600285469e+00 -2.5288436237e+00 1.4600285469e+00 2.5288436237e+00 
65000 5.2966573038e+00 -7.1078913631e-05 1.4600285469e+00 -2.5288436237e+00 1.4600285469e+00 2.5288436237e+00 
65100 5.2966573095e+00 -7.0139831926e-05 1.4600309811e+00 -2.5288478398e+00 1.4600309811e+00 2.5288478398e+00 
65200 5.2966573154e+00 -7.0841587011e-05 1.4600309811e+00 -2.5288478398e+00 1.4600309811e+00 2.5288478398e+00 
65300 5.2966573209e+00 -6.9894044544e-05 1.4600334071e+00 -2.5288520418e+00 1.4600334071e+00 2.5288520418e+00 
65400 5.2966573267e+00 -7.0581962329e-05 1.4600334071e+00 -2.5288520418e+00 1.4600334071e+00 2.5288520418e+00 
65500 5.2966573323e+00 -7.1265638998e-05 1.4600334071e+00 -2.5288520418e+00 1.4600334071e+00 2.5288520418e+00 
65600 5.2966573377e+00 -7.0290180583e-05 1.4600358476e+00 -2.5288562690e+00 1.4600358476e+00 2.5288562690e+00 
65700 5.2966573432e+00 -7.0960067373e-05 1.4600358476e+00 -2.5288562690e+00 1.4600358476e+00 2.5288562690e+00 
65800 5.2966573484e+00 -6.9978014186e-05 1.4600382777e+00 -2.5288604780e+00 1.4600382777e+00 2.5288604780e+00 
65900 5.2966573538e+00 -7.0634360447e-05 1.4600382777e+00 -2.5288604780e+00 1.4600382777e+00 2.5288604780e+00 
66000 5.2966573592e+00 -7.1286625990e-05 1.4600382777e+00 -2.5288604780e+00 1.4600382777e+00 2.5288604780e+00 
66100 5.2966573642e+00 -7.0279394386e-05 1.4600407190e+00 -2.5288647064e+00 1.4600407190e+00 2.5288647064e+00 
66200 5.2966573694e+00 -7.0918202986e-05 1.4600407190e+00 -2.5288647064e+00 1.4600407190e+00 2.5288647064e+00 
66300 5.2966573744e+00 -6.9906178233e-05 1.4600431476e+00 -2.5288689129e+00 1.4600431476e+00 2.5288689129e+00 
66400 5.2966573795e+00 -7.0531799135e-05 1.4600431476e+00 -2.5288689129e+00 1.4600431476e+00 2.5288689129e+00 
66500 5.2966573845e+00 -7.1153518819e-05 1.4600431476e+00 -2.5288689129e+00 1.4600431476e+00 2.5288689129e+00 
66600 5.2966573893e+00 -7.0118977552e-05 1.4600455843e+00 -2.5288731334e+00 1.4600455843e+00 2.5288731334e+00 
66700 5.2966573942e+00 -7.0727617755e-05 1.4600455843e+00 -2.5288731334e+00 1.4600455843e+00 2.5288731334e+00 
66800 5.2966573988e+00 -6.9690001326e-05 1.4600480064e+00 -2.5288773286e+00 1.4600480064e+00 2.5288773286e+00 
66900 5.2966574036e+00 -7.0285844215e-05 1.4600480064e+00 -2.5288773286e+00 1.4600480064e+00 2.5288773286e+00 
67000 5.2966574084e+00 -7.0877976514e-05 1.4600480064e+00 -2.5288773286e+00 1.4600480064e+00 2.5288773286e+00 
67100 5.2966574129e+00 -6.9820404169e-05 1.4600504337e+00 -2.5288815327e+00 1.4600504337e+00 2.5288815327e+00 
67200 5.2966574175e+00 -7.0399863662e-05 1.4600504337e+00 -2.5288815327e+00 1.4600504337e+00 2.5288815327e+00 
67300 5.2966574221e+00 -7.0975685824e-05 1.4600504337e+00 -2.5288815327e+00 1.4600504337e+00 2.5288815327e+00 
67400 5.2966574265e+00 -6.9899589409e-05 1.4600528642e+00 -2.5288857426e+00 1.4600528642e+00 2.5288857426e+00 
67500 5.2966574309e+00 -7.0462887652e-05 1.4600528642e+00 -2.5288857426e+00 1.4600528642e+00 2.5288857426e+00 
67600 5.2966574354e+00 -7.1022630830e-05 1.4600528642e+00 -2.5288857426e+00 1.4600528642e+00 2.5288857426e+00 
67700 5.2966574396e+00 -6.9929429453e-05 1.4600552964e+00 -2.5288899553e+00 1.4600552964e+00 2.5288899553e+00 
67800 5.2966574439e+00 -7.0476817248e-05 1.4600552964e+00 -2.5288899553e+00 1.4600552964e+00 2.5288899553e+00 
67900 5.2966574482e+00 -7.1020739170e-05 1.4600552964e+00 -2.5288899553e+00 1.4600552964e+00 2.5288899553e+00 
68000 5.2966574522e+00 -6.9911831806e-05 1.4600577286e+00 -2.5288941679e+00 1.4600577286e+00 2.5288941679e+00 
68100 5.2966574564e+00 -7.0443582599e-05 1.4600577286e+00 -2.5288941679e+00 1.4600577286e+00 2.5288941679e+00 
68200 5.2966574606e+00 -7.0971961915e-05 1.4600577286e+00 -2.5288941679e+00 1.4600577286e+00 2.5288941679e+00 
68300 5.2966574644e+00 -6.9848721551e-05 1.4600601590e+00 -2.5288983775e+00 1.4600601590e+00 2.5288983775e+00 
68400 5.2966574685e+00 -7.0365126444e-05 1.4600601590e+00 -2.5288983775e+00 1.4600601590e+00 2.5288983775e+00 
68500 5.2966574725e+00 -7.0878258052e-05 1.4600601590e+00 -2.5288983775e+00 1.4600601590e+00 2.5288983775e+00 
68600 5.2966574762e+00 -6.9742027107e-05 1.4600625863e+00 -2.5289025816e+00 1.4600625863e+00 2.5289025816e+00 
68700 5.2966574801e+00 -7.0243390734e-05 1.4600625863e+00 -2.5289025816e+00 1.4600625863e+00 2.5289025816e+00 
68800 5.2966574840e+00 -7.0741581898e-05 1.4600625863e+00 -2.5289025816e+00 1.4600625863e+00 2.5289025816e+00 
68900 5.2966574876e+00 -6.9593668690e-05 1.4600650088e+00 -2.5289067776e+00 1.4600650088e+00 2.5289067776e+00 
69000 5.2966574914e+00 -7.0080305806e-05 1.4600650088e+00 -2.5289067776e+00 1.4600650088e+00 2.5289067776e+00 
69100 5.2966574951e+00 -7.0563872958e-05 1.4600650088e+00 -2.5289067776e+00 1.4600650088e+00 2.5289067776e+00 
69200 5.2966574988e+00 -7.1044325860e-05 1.4600650088e+00 -2.5289067776e+00 1.4600650088e+00 2.5289067776e+00 
69300 5.2966575023e+00 -6.9871681784e-05 1.4600674417e+00 -2.5289109916e+00 1.4600674417e+00 2.5289109916e+00 
69400 5.2966575059e+00 -7.0340690382e-05 1.4600674417e+00 -2.5289109916e+00 1.4600674417e+00 2.5289109916e+00 
69500 5.2966575095e+00 -7.0806702286e-05 1.4600674417e+00 -2.5289109916e+00 1.4600674417e+00 2.5289109916e+00 
69600 5.2966575128e+00 -6.9625236898e-05 1.4600698665e+00 -2.5289151914e+00 1.4600698665e+00 2.5289151914e+00 
69700 5.2966575162e+00 -7.0080055322e-05 1.4600698665e+00 -2.5289151914e+00 1.4600698665e+00 2.5289151914e+00 
69800 5.2966575197e+00 -7.0531992312e-05 1.4600698665e+00 -2.5289151914e+00 1.4600698665e+00 2.5289151914e+00 
69900 5.2966575231e+00 -7.0981007081e-05 1.4600698665e+00 -2.5289151914e+00 1.4600698665e+00 2.5289151914e+00 
70000 5.2966575263e+00 -6.9778551638e-05 1.4600722972e+00 -2.5289194016e+00 1.4600722972e+00 2.5289194016e+00 
70100 5.2966575296e+00 -7.0216520385e-05 1.4600722972e+00 -2.5289194016e+00 1.4600722972e+00 2.5289194016e+00 
70200 5.2966575329e+00 -7.0651692979e-05 1.4600722972e+00 -2.5289194016e+00 1.4600722972e+00 2.5289194016e+00 
70300 5.2966575362e+00 -7.1084031515e-05 1.4600722972e+00 -2.5289194016e+00 1.4600722972e+00 2.5289194016e+00 
70400 5.2966575391e+00 -6.9862576076e-05 1.4600747315e+00 -2.5289236178e+00 1.4600747315e+00 2.5289236178e+00 
70500 5.2966575423e+00 -7.0284045500e-05 1.4600747315e+00 -2.5289236178e+00 1.4600747315e+00 2.5289236178e+00 
70600 5.2966575455e+00 -7.0702814597e-05 1.4600747315e+00 -2.5289236178e+00 1.4600747315e+00 2.5289236178e+00 
70700 5.2966575486e+00 -7.1118847502e-05 1.4600747315e+00 -2.5289236178e+00 1.4600747315e+00 2.5289236178e+00 
70800 5.2966575514e+00 -6.9880356744e-05 1.4600771670e+00 -2.5289278362e+00 1.4600771670e+00 2.5289278362e+00 
70900 5.2966575545e+00 -7.0285719399e-05 1.4600771670e+00 -2.5289278362e+00 1.4600771670e+00 2.5289278362e+00 
71000 5.2966575575e+00 -7.0688484798e-05 1.4600771670e+00 -2.5289278362e+00 1.4600771670e+00 2.5289278362e+00 
71100 5.2966575605e+00 -7.1088618470e-05 1.4600771670e+00 -2.5289278362e+00 1.4600771670e+00 2.5289278362e+00 
71200 5.2966575632e+00 -6.9835016489e-05 1.4600796014e+00 -2.5289320527e+00 1.4600796014e+00 2.5289320527e+00 
71300 5.2966575661e+00 -7.0224694849e-05 1.4600796014e+00 -2.5289320527e+00 1.4600796014e+00 2.5289320527e+00 
71400 5.2966575689e+00 -7.0611883708e-05 1.4600796014e+00 -2.5289320527e+00 1.4600796014e+00 2.5289320527e+00 
71500 5.2966575718e+00 -7.0996549502e-05 1.4600796014e+00 -2.5289320527e+00 1.4600796014e+00 2.5289320527e+00 
71600 5.2966575744e+00 -6.9729708661e-05 1.4600820326e+00 -2.5289362637e+00 1.4600820326e+00 2.5289362637e+00 
71700 5.2966575771e+00 -7.0104145552e-05 1.4600820326e+00 -2.5289362637e+00 1.4600820326e+00 2.5289362637e+00 
71800 5.2966575799e+00 -7.0476203407e-05 1.4600820326e+00 -2.5289362637e+00 1.4600820326e+00 2.5289362637e+00 
71900 5.2966575826e+00 -7.0845849199e-05 1.4600820326e+00 -2.5289362637e+00 1.4600820326e+00 2.5289362637e+00 
72000 5.2966575850e+00 -6.9567582122e-05 1.4600844587e+00 -2.5289404659e+00 1.4600844587e+00 2.5289404659e+00 
72100 5.2966575877e+00 -6.9927233292e-05 1.4600844587e+00 -2.5289404659e+00 1.4600844587e+00 2.5289404659e+00 
72200 5.2966575903e+00 -7.0284617083e-05 1.4600844587e+00 -2.5289404659e+00 1.4600844587e+00 2.5289404659e+00 
72300 5.2966575929e+00 -7.0639700729e-05 1.4600844587e+00 -2.5289404659e+00 1.4600844587e+00 2.5289404659e+00 
72400 5.2966575955e+00 -7.0992454862e-05 1.4600844587e+00 -2.5289404659e+00 1.4600844587e+00 2.5289404659e+00 
72500 5.2966575978e+00 -6.9693953965e-05 1.4600868898e+00 -2.5289446767e+00 1.4600868898e+00 2.5289446767e+00 
72600 5.2966576003e+00 -7.0036878140e-05 1.4600868898e+00 -2.5289446767e+00 1.4600868898e+00 2.5289446767e+00 
72700 5.2966576027e+00 -7.0377627289e-05 1.4600868898e+00 -2.5289446767e+00 1.4600868898e+00 2.5289446767e+00 
72800 5.2966576052e+00 -7.0716171259e-05 1.4600868898e+00 -2.5289446767e+00 1.4600868898e+00 2.5289446767e+00 
72900 5.2966576074e+00 -6.9409985009e-05 1.4600893115e+00 -2.5289488711e+00 1.4600893115e+00 2.5289488711e+00 
73000 5.2966576097e+00 -6.9738965313e-05 1.4600893115e+00 -2.5289488711e+00 1.4600893115e+00 2.5289488711e+00 
73100 5.2966576121e+00 -7.0065891683e-05 1.4600893115e+00 -2.5289488711e+00 1.4600893115e+00 2.5289488711e+00 
73200 5.2966576144e+00 -7.0390733227e-05 1.4600893115e+00 -2.5289488711e+00 1.4600893115e+00 2.5289488711e+00 
73300 5.2966576168e+00 -7.0713462224e-05 1.4600893115e+00 -2.5289488711e+00 1.4600893115e+00 2.5289488711e+00 
73400 5.2966576188e+00 -6.9391598214e-05 1.4600917330e+00 -2.5289530653e+00 1.4600917330e+00 2.5289530653e+00 
73500 5.2966576211e+00 -6.9704955688e-05 1.4600917330e+00 -2.5289530653e+00 1.4600917330e+00 2.5289530653e+00 
73600 5.2966576233e+00 -7.0016357958e-05 1.4600917330e+00 -2.5289530653e+00 1.4600917330e+00 2.5289530653e+00 
73700 5.2966576255e+00 -7.0325775819e-05 1.4600917330e+00 -2.5289530653e+00 1.4600917330e+00 2.5289530653e+00 
73800 5.2966576277e+00 -7.0633183078e-05 1.4600917330e+00 -2.5289530653e+00 1.4600917330e+00 2.5289530653e+00 
73900 5.2966576298e+00 -7.0938556361e-05 1.4600917330e+00 -2.5289530653e+00 1.4600917330e+00 2.5289530653e+00 
74000 5.2966576317e+00 -6.9594166342e-05 1.4600941623e+00 -2.5289572729e+00 1.4600941623e+00 2.5289572729e+00 
74100 5.2966576338e+00 -6.9890321068e-05 1.4600941623e+00 -2.5289572729e+00 1.4600941623e+00 2.5289572729e+00 
74200 5.2966576359e+00 -7.0184611001e-05 1.4600941623e+00 -2.5289572729e+00 1.4600941623e+00 2.5289572729e+00 
74300 5.2966576380e+00 -7.0477010039e-05 1.4600941623e+00 -2.5289572729e+00 1.4600941623e+00 2.5289572729e+00 
74400 5.2966576400e+00 -7.0767494836e-05 1.4600941623e+00 -2.5289572729e+00 1.4600941623e+00 2.5289572729e+00 
74500 5.2966576418e+00 -6.9412291441e-05 1.4600965857e+00 -2.5289614703e+00 1.4600965857e+00 2.5289614703e+00 
74600 5.2966576438e+00 -6.9693809440e-05 1.4600965857e+00 -2.5289614703e+00 1.4600965857e+00 2.5289614703e+00 
74700 5.2966576457e+00 -6.9973581572e-05 1.4600965857e+00 -2.5289614703e+00 1.4600965857e+00 2.5289614703e+00 
74800 5.2966576477e+00 -7.0251581577e-05 1.4600965857e+00 -2.5289614703e+00 1.4600965857e+00 2.5289614703e+00 
74900 5.2966576496e+00 -7.0527785908e-05 1.4600965857e+00 -2.5289614703e+00 1.4600965857e+00 2.5289614703e+00 
75000 5.2966576515e+00 -7.0802173555e-05 1.4600965857e+00 -2.5289614703e+00 1.4600965857e+00 2.5289614703e+00 
75100 5.2966576531e+00 -6.9430145638e-05 1.4600990102e+00 -2.5289656698e+00 1.4600990102e+00 2.5289656698e+00 
75200 5.2966576550e+00 -6.9695765504e-05 1.4600990102e+00 -2.5289656698e+00 1.4600990102e+00 2.5289656698e+00 
75300 5.2966576568e+00 -6.9959742974e-05 1.4600990102e+00 -2.5289656698e+00 1.4600990102e+00 2.5289656698e+00 
75400 5.2966576586e+00 -7.0222053367e-05 1.4600990102e+00 -2.5289656698e+00 1.4600990102e+00 2.5289656698e+00 
75500 5.2966576604e+00 -7.0482674554e-05 1.4600990102e+00 -2.5289656698e+00 1.4600990102e+00 2.5289656698e+00 
75600 5.2966576622e+00 -7.0741586795e-05 1.4600990102e+00 -2.5289656698e+00 1.4600990102e+00 2.5289656698e+00 
75700 5.2966576637e+00 -6.9355579630e-05 1.4601014327e+00 -2.5289698657e+00 1.4601014327e+00 2.5289698657e+00 
75800 5.2966576654e+00 -6.9605947350e-05 1.4601014327e+00 -2.5289698657e+00 1.4601014327e+00 2.5289698657e+00 
75900 5.2966576671e+00 -6.9854783207e-05 1.4601014327e+00 -2.5289698657e+00 1.4601014327e+00 2.5289698657e+00 
76000 5.2966576688e+00 -7.0102063290e-05 1.4601014327e+00 -2.5289698657e+00 1.4601014327e+00 2.5289698657e+00 
76100 5.2966576705e+00 -7.0347766132e-05 1.4601014327e+00 -2.5289698657e+00 1.4601014327e+00 2.5289698657e+00 
76200 5.2966576722e+00 -7.0591872550e-05 1.4601014327e+00 -2.5289698657e+00 1.4601014327e+00 2.5289698657e+00 
76300 5.2966576738e+00 -7.0834365501e-05 1.4601014327e+00 -2.5289698657e+00 1.4601014327e+00 2.5289698657e+00 
76400 5.2966576752e+00 -6.9429859098e-05 1.4601038584e+00 -2.5289740671e+00 1.4601038584e+00 2.5289740671e+00 
76500 5.2966576768e+00 -6.9663999217e-05 1.4601038584e+00 -2.5289740671e+00 1.4601038584e+00 2.5289740671e+00 
76600 5.2966576784e+00 -6.9896709984e-05 1.4601038584e+00 -2.5289740671e+00 1.4601038584e+00 2.5289740671e+00 
76700 5.2966576799e+00 -7.0127969318e-05 1.4601038584e+00 -2.5289740671e+00 1.4601038584e+00 2.5289740671e+00 
76800 5.2966576815e+00 -7.0357757405e-05 1.4601038584e+00 -2.5289740671e+00 1.4601038584e+00 2.5289740671e+00 
76900 5.2966576830e+00 -7.0586056544e-05 1.4601038584e+00 -2.5289740671e+00 1.4601038584e+00 2.5289740671e+00 
77000 5.2966576845e+00 -7.0812851015e-05 1.4601038584e+00 -2.5289740671e+00 1.4601038584e+00 2.5289740671e+00 
77100 5.2966576857e+00 -6.9393234907e-05 1.4601062833e+00 -2.5289782672e+00 1.4601062833e+00 2.5289782672e+00 
77200 5.2966576872e+00 -6.9611899271e-05 1.4601062833e+00 -2.5289782672e+00 1.4601062833e+00 2.5289782672e+00 
77300 5.2966576887e+00 -6.9829246121e-05 1.4601062833e+00 -2.5289782672e+00 1.4601062833e+00 2.5289782672e+00 
77400 5.2966576901e+00 -7.0045254170e-05 1.4601062833e+00 -2.5289782672e+00 1.4601062833e+00 2.5289782672e+00 
77500 5.2966576915e+00 -7.0259904278e-05 1.4601062833e+00 -2.5289782672e+00 1.4601062833e+00 2.5289782672e+00 
77600 5.2966576929e+00 -7.0473179313e-05 1.4601062833e+00 -2.5289782672e+00 1.4601062833e+00 2.5289782672e+00 
77700 5.2966576943e+00 -7.0685064028e-05 1.4601062833e+00 -2.5289782672e+00 1.4601062833e+00 2.5289782672e+00 
77800 5.2966576957e+00 -7.0895544933e-05 1.4601062833e+00 -2.5289782672e+00 1.4601062833e+00 2.5289782672e+00 
77900 5.2966576968e+00 -6.9457774324e-05 1.4601087111e+00 -2.5289824722e+00 1.4601087111e+00 2.5289824722e+00 
78000 5.2966576982e+00 -6.9660326976e-05 1.4601087111e+00 -2.5289824722e+00 1.4601087111e+00 2.5289824722e+00 
78100 5.2966576995e+00 -6.9861668713e-05 1.4601087111e+00 -2.5289824722e+00 1.4601087111e+00 2.5289824722e+00 
78200 5.2966577008e+00 -7.0061779705e-05 1.4601087111e+00 -2.5289824722e+00 1.4601087111e+00 2.5289824722e+00 
78300 5.2966577021e+00 -7.0260642113e-05 1.4601087111e+00 -2.5289824722e+00 1.4601087111e+00 2.5289824722e+00 
78400 5.2966577034e+00 -7.0458239958e-05 1.4601087111e+00 -2.5289824722e+00 1.4601087111e+00 2.5289824722e+00 
78500 5.2966577047e+00 -7.0654559002e-05 1.4601087111e+00 -2.5289824722e+00 1.4601087111e+00 2.5289824722e+00 
78600 5.2966577059e+00 -7.0849586638e-05 1.4601087111e+00 -2.5289824722e+00 1.4601087111e+00 2.5289824722e+00 
78700 5.2966577069e+00 -6.9397522692e-05 1.4601111373e+00 -2.5289866744e+00 1.4601111373e+00 2.5289866744e+00 
78800 5.2966577081e+00 -6.9584852526e-05 1.4601111373e+00 -2.5289866744e+00 1.4601111373e+00 2.5289866744e+00 
78900 5.2966577094e+00 -6.9771085630e-05 1.4601111373e+00 -2.5289866744e+00 1.4601111373e+00 2.5289866744e+00 
79000 5.2966577105e+00 -6.9956202626e-05 1.4601111373e+00 -2.5289866744e+00 1.4601111373e+00 2.5289866744e+00 
79100 5.2966577117e+00 -7.0140186025e-05 1.4601111373e+00 -2.5289866744e+00 1.4601111373e+00 2.5289866744e+00 
79200 5.2966577129e+00 -7.0323020117e-05 1.4601111373e+00 -2.5289866744e+00 1.4601111373e+00 2.5289866744e+00 
79300 5.2966577141e+00 -7.0504690851e-05 1.4601111373e+00 -2.5289866744e+00 1.4601111373e+00 2.5289866744e+00 
79400 5.2966577152e+00 -7.0685185728e-05 1.4601111373e+00 -2.5289866744e+00 1.4601111373e+00 2.5289866744e+00 
79500 5.2966577163e+00 -7.0864493703e-05 1.4601111373e+00 -2.5289866744e+00 1.4601111373e+00 2.5289866744e+00 
79600 5.2966577172e+00 -6.9396447698e-05 1.4601135639e+00 -2.5289908776e+00 1.4601135639e+00 2.5289908776e+00 
79700 5.2966577183e+00 -6.9568270050e-05 1.4601135639e+00 -2.5289908776e+00 1.4601135639e+00 2.5289908776e+00 
79800 5.2966577194e+00 -6.9739103953e-05 1.4601135639e+00 -2.5289908776e+00 1.4601135639e+00 2.5289908776e+00 
79900 5.2966577205e+00 -6.9908930983e-05 1.4601135639e+00 -2.5289908776e+00 1.4601135639e+00 2.5289908776e+00 
80000 5.2966577216e+00 -7.0077734492e-05 1.4601135639e+00 -2.5289908776e+00 1.4601135639e+00 2.5289908776e+00 
80100 5.2966577226e+00 -7.0245499482e-05 1.4601135639e+00 -2.5289908776e+00 1.4601135639e+00 2.5289908776e+00 
80200 5.2966577236e+00 -7.0412212507e-05 1.4601135639e+00 -2.5289908776e+00 1.4601135639e+00 2.5289908776e+00 
80300 5.2966577247e+00 -7.0577861571e-05 1.4601135639e+00 -2.5289908776e+00 1.4601135639e+00 2.5289908776e+00 
80400 5.2966577257e+00 -7.0742436034e-05 1.4601135639e+00 -2.5289908776e+00 1.4601135639e+00 2.5289908776e+00 
80500 5.2966577265e+00 -6.9262584802e-05 1.4601159864e+00 -2.5289950734e+00 1.4601159864e+00 2.5289950734e+00 
80600 5.2966577275e+00 -6.9419908042e-05 1.4601159864e+00 -2.5289950734e+00 1.4601159864e+00 2.5289950734e+00 
80700 5.2966577284e+00 -6.9576355439e-05 1.4601159864e+00 -2.5289950734e+00 1.4601159864e+00 2.5289950734e+00 
80800 5.2966577294e+00 -6.9731908676e-05 1.4601159864e+00 -2.5289950734e+00 1.4601159864e+00 2.5289950734e+00 
80900 5.2966577304e+00 -6.9886551136e-05 1.4601159864e+00 -2.5289950734e+00 1.4601159864e+00 2.5289950734e+00 
81000 5.2966577313e+00 -7.0040267795e-05 1.4601159864e+00 -2.5289950734e+00 1.4601159864e+00 2.5289950734e+00 
81100 5.2966577323e+00 -7.0193045118e-05 1.4601159864e+00 -2.5289950734e+00 1.4601159864e+00 2.5289950734e+00 
81200 5.2966577332e+00 -7.0344870965e-05 1.4601159864e+00 -2.5289950734e+00 1.4601159864e+00 2.5289950734e+00 
81300 5.2966577341e+00 -7.0495734501e-05 1.4601159864e+00 -2.5289950734e+00 1.4601159864e+00 2.5289950734e+00 
81400 5.2966577350e+00 -7.0645626110e-05 1.4601159864e+00 -2.5289950734e+00 1.4601159864e+00 2.5289950734e+00 
81500 5.2966577359e+00 -7.0794537318e-05 1.4601159864e+00 -2.5289950734e+00 1.4601159864e+00 2.5289950734e+00 
81600 5.2966577366e+00 -6.9297885740e-05 1.4601184107e+00 -2.5289992724e+00 1.4601184107e+00 2.5289992724e+00 
81700 5.2966577375e+00 -6.9439736293e-05 1.4601184107e+00 -2.5289992724e+00 1.4601184107e+00 2.5289992724e+00 
81800 5.2966577383e+00 -6.9580810689e-05 1.4601184107e+00 -2.5289992724e+00 1.4601184107e+00 2.5289992724e+00 
81900 5.2966577392e+00 -6.9721092034e-05 1.4601184107e+00 -2.5289992724e+00 1.4601184107e+00 2.5289992724e+00 
82000 5.2966577400e+00 -6.9860564978e-05 1.4601184107e+00 -2.5289992724e+00 1.4601184107e+00 2.5289992724e+00 
82100 5.2966577409e+00 -6.9999215621e-05 1.4601184107e+00 -2.5289992724e+00 1.4601184107e+00 2.5289992724e+00 
82200 5.2966577417e+00 -7.0137031415e-05 1.4601184107e+00 -2.5289992724e+00 1.4601184107e+00 2.5289992724e+00 
82300 5.2966577425e+00 -7.0274001080e-05 1.4601184107e+00 -2.5289992724e+00 1.4601184107e+00 2.5289992724e+00 
82400 5.2966577433e+00 -7.0410114526e-05 1.4601184107e+00 -2.5289992724e+00 1.4601184107e+00 2.5289992724e+00 
82500 5.2966577441e+00 -7.0545362767e-05 1.4601184107e+00 -2.5289992724e+00 1.4601184107e+00 2.5289992724e+00 
82600 5.2966577449e+00 -7.0679737859e-05 1.4601184107e+00 -2.5289992724e+00 1.4601184107e+00 2.5289992724e+00 
82700 5.2966577457e+00 -7.0813232824e-05 1.4601184107e+00 -2.5289992724e+00 1.4601184107e+00 2.5289992724e+00 
82800 5.2966577462e+00 -6.9300809866e-05 1.4601208356e+00 -2.5290034725e+00 1.4601208356e+00 2.5290034725e+00 
82900 5.2966577470e+00 -6.9427447451e-05 1.4601208356e+00 -2.5290034725e+00 1.4601208356e+00 2.5290034725e+00 
83000 5.2966577477e+00 -6.9553412776e-05 1.4601208356e+00 -2.5290034725e+00 1.4601208356e+00 2.5290034725e+00 
83100 5.2966577485e+00 -6.9678689863e-05 1.4601208356e+00 -2.5290034725e+00 1.4601208356e+00 2.5290034725e+00 
83200 5.2966577492e+00 -6.9803264156e-05 1.4601208356e+00 -2.5290034725e+00 1.4601208356e+00 2.5290034725e+00 
83300 5.2966577500e+00 -6.9927122433e-05 1.4601208356e+00 -2.5290034725e+00 1.4601208356e+00 2.5290034725e+00 
83400 5.2966577507e+00 -7.0050252721e-05 1.4601208356e+00 -2.5290034725e+00 1.4601208356e+00 2.5290034725e+00 
83500 5.2966577514e+00 -7.0172644214e-05 1.4601208356e+00 -2.5290034725e+00 1.4601208356e+00 2.5290034725e+00 
83600 5.2966577521e+00 -7.0294287204e-05 1.4601208356e+00 -2.5290034725e+00 1.4601208356e+00 2.5290034725e+00 
83700 5.2966577528e+00 -7.0415173001e-05 1.4601208356e+00 -2.5290034725e+00 1.4601208356e+00 2.5290034725e+00 
83800 5.2966577535e+00 -7.0535293877e-05 1.4601208356e+00 -2.5290034725e+00 1.4601208356e+00 2.5290034725e+00 
83900 5.2966577542e+00 -7.0654642997e-05 1.4601208356e+00 -2.5290034725e+00 1.4601208356e+00 2.5290034725e+00 
84000 5.2966577548e+00 -7.0773214360e-05 1.4601208356e+00 -2.5290034725e+00 1.4601208356e+00 2.5290034725e+00 
84100 5.2966577553e+00 -6.9246879186e-05 1.4601232592e+00 -2.5290076702e+00 1.4601232592e+00 2.5290076702e+00 
84200 5.2966577559e+00 -6.9358803417e-05 1.4601232592e+00 -2.5290076702e+00 1.4601232592e+00 2.5290076702e+00 
84300 5.2966577566e+00 -6.9470159840e-05 1.4601232592e+00 -2.5290076702e+00 1.4601232592e+00 2.5290076702e+00 
84400 5.2966577572e+00 -6.9580933011e-05 1.4601232592e+00 -2.5290076702e+00 1.4601232592e+00 2.5290076702e+00 
84500 5.2966577579e+00 -6.9691108817e-05 1.4601232592e+00 -2.5290076702e+00 1.4601232592e+00 2.5290076702e+00 
84600 5.2966577585e+00 -6.9800674389e-05 1.4601232592e+00 -2.5290076702e+00 1.4601232592e+00 2.5290076702e+00 
84700 5.2966577591e+00 -6.9909618025e-05 1.4601232592e+00 -2.5290076702e+00 1.4601232592e+00 2.5290076702e+00 
84800 5.2966577597e+00 -7.0017929113e-05 1.4601232592e+00 -2.5290076702e+00 1.4601232592e+00 2.5290076702e+00 
84900 5.2966577603e+00 -7.0125598067e-05 1.4601232592e+00 -2.5290076702e+00 1.4601232592e+00 2.5290076702e+00 
85000 5.2966577609e+00 -7.0232616257e-05 1.4601232592e+00 -2.5290076702e+00 1.4601232592e+00 2.5290076702e+00 
85100 5.2966577615e+00 -7.0338975948e-05 1.4601232592e+00 -2.5290076702e+00 1.4601232592e+00 2.5290076702e+00 
85200 5.2966577621e+00 -7.0444670246e-05 1.4601232592e+00 -2.5290076702e+00 1.4601232592e+00 2.5290076702e+00 
85300 5.2966577627e+00 -7.0549693036e-05 1.4601232592e+00 -2.5290076702e+00 1.4601232592e+00 2.5290076702e+00 
85400 5.2966577632e+00 -7.0654038939e-05 1.4601232592e+00 -2.5290076702e+00 1.4601232592e+00 2.5290076702e+00 
85500 5.2966577638e+00 -7.0757703258e-05 1.4601232592e+00 -2.5290076702e+00 1.4601232592e+00 2.5290076702e+00 
85600 5.2966577641e+00 -6.9216896694e-05 1.4601256822e+00 -2.5290118670e+00 1.4601256822e+00 2.5290118670e+00 
85700 5.2966577647e+00 -6.9314110880e-05 1.4601256822e+00 -2.5290118670e+00 1.4601256822e+00 2.5290118670e+00 
85800 5.2966577652e+00 -6.9410856458e-05 1.4601256822e+00 -2.5290118670e+00 1.4601256822e+00 2.5290118670e+00 
85900 5.2966577658e+00 -6.9507118776e-05 1.4601256822e+00 -2.5290118670e+00 1.4601256822e+00 2.5290118670e+00 
86000 5.2966577663e+00 -6.9602884401e-05 1.4601256822e+00 -2.5290118670e+00 1.4601256822e+00 2.5290118670e+00 
86100 5.2966577668e+00 -6.9698141047e-05 1.4601256822e+00 -2.5290118670e+00 1.4601256822e+00 2.5290118670e+00 
86200 5.2966577674e+00 -6.9792877495e-05 1.4601256822e+00 -2.5290118670e+00 1.4601256822e+00 2.5290118670e+00 
86300 5.2966577679e+00 -6.9887083535e-05 1.4601256822e+00 -2.5290118670e+00 1.4601256822e+00 2.5290118670e+00 
86400 5.2966577684e+00 -6.9980749893e-05 1.4601256822e+00 -2.5290118670e+00 1.4601256822e+00 2.5290118670e+00 
86500 5.2966577689e+00 -7.0073868182e-05 1.4601256822e+00 -2.5290118670e+00 1.4601256822e+00 2.5290118670e+00 
86600 5.2966577694e+00 -7.0166430835e-05 1.4601256822e+00 -2.5290118670e+00 1.4601256822e+00 2.5290118670e+00 
86700 5.2966577699e+00 -7.0258431060e-05 1.4601256822e+00 -2.5290118670e+00 1.4601256822e+00 2.5290118670e+00 
86800 5.2966577704e+00 -7.0349862785e-05 1.4601256822e+00 -2.5290118670e+00 1.4601256822e+00 2.5290118670e+00 
86900 5.2966577709e+00 -7.0440720614e-05 1.4601256822e+00 -2.5290118670e+00 1.4601256822e+00 2.5290118670e+00 
87000 5.2966577713e+00 -7.0530999783e-05 1.4601256822e+00 -2.5290118670e+00 1.4601256822e+00 2.5290118670e+00 
87100 5.2966577718e+00 -7.0620696117e-05 1.4601256822e+00 -2.5290118670e+00 1.4601256822e+00 2.5290118670e+00 
87200 5.2966577723e+00 -7.0709805990e-05 1.4601256822e+00 -2.5290118670e+00 1.4601256822e+00 2.5290118670e+00 
87300 5.2966577727e+00 -7.0798326294e-05 1.4601256822e+00 -2.5290118670e+00 1.4601256822e+00 2.5290118670e+00 
87400 5.2966577730e+00 -6.9241502375e-05 1.4601281066e+00 -2.5290160661e+00 1.4601281066e+00 2.5290160661e+00 
87500 5.2966577734e+00 -6.9323758000e-05 1.4601281066e+00 -2.5290160661e+00 1.4601281066e+00 2.5290160661e+00 
87600 5.2966577739e+00 -6.9405640995e-05 1.4601281066e+00 -2.5290160661e+00 1.4601281066e+00 2.5290160661e+00 
87700 5.2966577743e+00 -6.9487137712e-05 1.4601281066e+00 -2.5290160661e+00 1.4601281066e+00 2.5290160661e+00 
87800 5.2966577747e+00 -6.9568235603e-05 1.4601281066e+00 -2.5290160661e+00 1.4601281066e+00 2.5290160661e+00 
87900 5.2966577752e+00 -6.9648923150e-05 1.4601281066e+00 -2.5290160661e+00 1.4601281066e+00 2.5290160661e+00 
88000 5.2966577756e+00 -6.9729189804e-05 1.4601281066e+00 -2.5290160661e+00 1.4601281066e+00 2.5290160661e+00 
88100 5.2966577760e+00 -6.9809025919e-05 1.4601281066e+00 -2.5290160661e+00 1.4601281066e+00 2.5290160661e+00 
88200 5.2966577764e+00 -6.9888422700e-05 1.4601281066e+00 -2.5290160661e+00 1.4601281066e+00 2.5290160661e+00 
88300 5.2966577768e+00 -6.9967372148e-05 1.4601281066e+00 -2.5290160661e+00 1.4601281066e+00 2.5290160661e+00 
88400 5.2966577772e+00 -7.0045867010e-05 1.4601281066e+00 -2.5290160661e+00 1.4601281066e+00 2.5290160661e+00 
88500 5.2966577776e+00 -7.0123900731e-05 1.4601281066e+00 -2.5290160661e+00 1.4601281066e+00 2.5290160661e+00 
88600 5.2966577780e+00 -7.0201467409e-05 1.4601281066e+00 -2.5290160661e+00 1.4601281066e+00 2.5290160661e+00 
88700 5.2966577784e+00 -7.0278561754e-05 1.4601281066e+00 -2.5290160661e+00 1.4601281066e+00 2.5290160661e+00 
88800 5.2966577788e+00 -7.0355179047e-05 1.4601281066e+00 -2.5290160661e+00 1.4601281066e+00 2.5290160661e+00 
88900 5.2966577792e+00 -7.0431315103e-05 1.4601281066e+00 -2.5290160661e+00 1.4601281066e+00 2.5290160661e+00 
89000 5.2966577796e+00 -7.0506966240e-05 1.4601281066e+00 -2.5290160661e+00 1.4601281066e+00 2.5290160661e+00 
89100 5.2966577799e+00 -7.0582129241e-05 1.4601281066e+00 -2.5290160661e+00 1.4601281066e+00 2.5290160661e+00 
89200 5.2966577803e+00 -7.0656801325e-05 1.4601281066e+00 -2.5290160661e+00 1.4601281066e+00 2.5290160661e+00 
89300 5.2966577807e+00 -7.0730980118e-05 1.4601281066e+00 -2.5290160661e+00 1.4601281066e+00 2.5290160661e+00 
89400 5.2966577808e+00 -6.9161455057e-05 1.4601305286e+00 -2.5290202613e+00 1.4601305286e+00 2.5290202613e+00 
89500 5.2966577812e+00 -6.9229568568e-05 1.4601305286e+00 -2.5290202613e+00 1.4601305286e+00 2.5290202613e+00 
89600 5.2966577815e+00 -6.9297407142e-05 1.4601305286e+00 -2.5290202613e+00 1.4601305286e+00 2.5290202613e+00 
89700 5.2966577819e+00 -6.9364957520e-05 1.4601305286e+00 -2.5290202613e+00 1.4601305286e+00 2.5290202613e+00 
89800 5.2966577822e+00 -6.9432207467e-05 1.4601305286e+00 -2.5290202613e+00 1.4601305286e+00 2.5290202613e+00 
89900 5.2966577826e+00 -6.9499145706e-05 1.4601305286e+00 -2.5290202613e+00 1.4601305286e+00 2.5290202613e+00 
90000 5.2966577829e+00 -6.9565761865e-05 1.4601305286e+00 -2.5290202613e+00 1.4601305286e+00 2.5290202613e+00 
90100 5.2966577832e+00 -6.9632046412e-05 1.4601305286e+00 -2.5290202613e+00 1.4601305286e+00 2.5290202613e+00 
90200 5.2966577836e+00 -6.9697990610e-05 1.4601305286e+00 -2.5290202613e+00 1.4601305286e+00 2.5290202613e+00 
90300 5.2966577839e+00 -6.9763586467e-05 1.4601305286e+00 -2.5290202613e+00 1.4601305286e+00 2.5290202613e+00 
90400 5.2966577842e+00 -6.9828826684e-05 1.4601305286e+00 -2.5290202613e+00 1.4601305286e+00 2.5290202613e+00 
90500 5.2966577845e+00 -6.9893704617e-05 1.4601305286e+00 -2.5290202613e+00 1.4601305286e+00 2.5290202613e+00 
90600 5.2966577848e+00 -6.9958214232e-05 1.4601305286e+00 -2.5290202613e+00 1.4601305286e+00 2.5290202613e+00 
90700 5.2966577851e+00 -7.0022350070e-05 1.4601305286e+00 -2.5290202613e+00 1.4601305286e+00 2.5290202613e+00 
90800 5.2966577855e+00 -7.0086107206e-05 1.4601305286e+00 -2.5290202613e+00 1.4601305286e+00 2.5290202613e+00 
90900 5.2966577858e+00 -7.0149481217e-05 1.4601305286e+00 -2.5290202613e+00 1.4601305286e+00 2.5290202613e+00 
91000 5.2966577861e+00 -7.0212468150e-05 1.4601305286e+00 -2.5290202613e+00 1.4601305286e+00 2.5290202613e+00 
91100 5.2966577864e+00 -7.0275064489e-05 1.4601305286e+00 -2.5290202613e+00 1.4601305286e+00 2.5290202613e+00 
91200 5.2966577867e+00 -7.0337267130e-05 1.4601305286e+00 -2.5290202613e+00 1.4601305286e+00 2.5290202613e+00 
91300 5.2966577869e+00 -7.0399073353e-05 1.4601305286e+00 -2.5290202613e+00 1.4601305286e+00 2.5290202613e+00 
91400 5.2966577872e+00 -7.0460480793e-05 1.4601305286e+00 -2.5290202613e+00 1.4601305286e+00 2.5290202613e+00 
91500 5.2966577875e+00 -7.0521487422e-05 1.4601305286e+00 -2.5290202613e+00 1.4601305286e+00 2.5290202613e+00 
91600 5.2966577878e+00 -7.0582091522e-05 1.4601305286e+00 -2.5290202613e+00 1.4601305286e+00 2.5290202613e+00 
91700 5.2966577881e+00 -7.0642291668e-05 1.4601305286e+00 -2.5290202613e+00 1.4601305286e+00 2.5290202613e+00 
91800 5.2966577884e+00 -7.0702086704e-05 1.4601305286e+00 -2.5290202613e+00 1.4601305286e+00 2.5290202613e+00 
91900 5.2966577886e+00 -7.0761475728e-05 1.4601305286e+00 -2.5290202613e+00 1.4601305286e+00 2.5290202613e+00 
92000 5.2966577887e+00 -6.9176518248e-05 1.4601329518e+00 -2.5290244583e+00 1.4601329518e+00 2.5290244583e+00 
92100 5.2966577889e+00 -6.9230018413e-05 1.4601329518e+00 -2.5290244583e+00 1.4601329518e+00 2.5290244583e+00 
92200 5.2966577892e+00 -6.9283334589e-05 1.4601329518e+00 -2.5290244583e+00 1.4601329518e+00 2.5290244583e+00 
92300 5.2966577894e+00 -6.9336454460e-05 1.4601329518e+00 -2.5290244583e+00 1.4601329518e+00 2.5290244583e+00 
92400 5.2966577897e+00 -6.9389366628e-05 1.4601329518e+00 -2.5290244583e+00 1.4601329518e+00 2.5290244583e+00 
92500 5.2966577900e+00 -6.9442060545e-05 1.4601329518e+00 -2.5290244583e+00 1.4601329518e+00 2.5290244583e+00 
92600 5.2966577902e+00 -6.9494526472e-05 1.4601329518e+00 -2.5290244583e+00 1.4601329518e+00 2.5290244583e+00 
92700 5.2966577905e+00 -6.9546755427e-05 1.4601329518e+00 -2.5290244583e+00 1.4601329518e+00 2.5290244583e+00 
92800 5.2966577907e+00 -6.9598739135e-05 1.4601329518e+00 -2.5290244583e+00 1.4601329518e+00 2.5290244583e+00 
92900 5.2966577909e+00 -6.9650469985e-05 1.4601329518e+00 -2.5290244583e+00 1.4601329518e+00 2.5290244583e+00 
93000 5.2966577912e+00 -6.9701940994e-05 1.4601329518e+00 -2.5290244583e+00 1.4601329518e+00 2.5290244583e+00 
93100 5.2966577914e+00 -6.9753145762e-05 1.4601329518e+00 -2.5290244583e+00 1.4601329518e+00 2.5290244583e+00 
93200 5.2966577917e+00 -6.9804078440e-05 1.4601329518e+00 -2.5290244583e+00 1.4601329518e+00 2.5290244583e+00 
93300 5.2966577919e+00 -6.9854733690e-05 1.4601329518e+00 -2.5290244583e+00 1.4601329518e+00 2.5290244583e+00 
93400 5.2966577921e+00 -6.9905106658e-05 1.4601329518e+00 -2.5290244583e+00 1.4601329518e+00 2.5290244583e+00 
93500 5.2966577923e+00 -6.9955192941e-05 1.4601329518e+00 -2.5290244583e+00 1.4601329518e+00 2.5290244583e+00 
93600 5.2966577926e+00 -7.0004988561e-05 1.4601329518e+00 -2.5290244583e+00 1.4601329518e+00 2.5290244583e+00 
93700 5.2966577928e+00 -7.0054489932e-05 1.4601329518e+00 -2.5290244583e+00 1.4601329518e+00 2.5290244583e+00 
93800 5.2966577930e+00 -7.0103693839e-05 1.4601329518e+00 -2.5290244583e+00 1.4601329518e+00 2.5290244583e+00 
93900 5.2966577932e+00 -7.0152597415e-05 1.4601329518e+00 -2.5290244583e+00 1.4601329518e+00 2.5290244583e+00 
94000 5.2966577934e+00 -7.0201198115e-05 1.4601329518e+00 -2.5290244583e+00 1.4601329518e+00 2.5290244583e+00 
94100 5.2966577936e+00 -7.0249493699e-05 1.4601329518e+00 -2.5290244583e+00 1.4601329518e+00 2.5290244583e+00 
94200 5.2966577938e+00 -7.0297482206e-05 1.4601329518e+00 -2.5290244583e+00 1.4601329518e+00 2.5290244583e+00 
94300 5.2966577941e+00 -7.0345161942e-05 1.4601329518e+00 -2.5290244583e+00 1.4601329518e+00 2.5290244583e+00 
94400 5.2966577943e+00 -7.0392531459e-05 1.4601329518e+00 -2.5290244583e+00 1.4601329518e+00 2.5290244583e+00 
94500 5.2966577945e+00 -7.0439589538e-05 1.4601329518e+00 -2.5290244583e+00 1.4601329518e+00 2.5290244583e+00 
94600 5.2966577947e+00 -7.0486335175e-05 1.4601329518e+00 -2.5290244583e+00 1.4601329518e+00 2.5290244583e+00 
94700 5.2966577949e+00 -7.0532767567e-05 1.4601329518e+00 -2.5290244583e+00 1.4601329518e+00 2.5290244583e+00 
94800 5.2966577951e+00 -7.0578886096e-05 1.4601329518e+00 -2.5290244583e+00 1.4601329518e+00 2.5290244583e+00 
94900 5.2966577952e+00 -7.0624690319e-05 1.4601329518e+00 -2.5290244583e+00 1.4601329518e+00 2.5290244583e+00 
95000 5.2966577954e+00 -7.0670179952e-05 1.4601329518e+00 -2.5290244583e+00 1.4601329518e+00 2.5290244583e+00 
95100 5.2966577956e+00 -7.0715354865e-05 1.4601329518e+00 -2.5290244583e+00 1.4601329518e+00 2.5290244583e+00 
95200 5.2966577956e+00 -6.9117325497e-05 1.4601353733e+00 -2.5290286525e+00 1.4601353733e+00 2.5290286525e+00 
95300 5.2966577958e+00 -6.9156799567e-05 1.4601353733e+00 -2.5290286525e+00 1.4601353733e+00 2.5290286525e+00 
95400 5.2966577959e+00 -6.9196182544e-05 1.4601353733e+00 -2.5290286525e+00 1.4601353733e+00 2.5290286525e+00 
95500 5.2966577961e+00 -6.9235462546e-05 1.4601353733e+00 -2.5290286525e+00 1.4601353733e+00 2.5290286525e+00 
95600 5.2966577963e+00 -6.9274628533e-05 1.4601353733e+00 -2.5290286525e+00 1.4601353733e+00 2.5290286525e+00 
95700 5.2966577965e+00 -6.9313670253e-05 1.4601353733e+00 -2.5290286525e+00 1.4601353733e+00 2.5290286525e+00 
95800 5.2966577967e+00 -6.9352578194e-05 1.4601353733e+00 -2.5290286525e+00 1.4601353733e+00 2.5290286525e+00 
95900 5.2966577968e+00 -6.9391343545e-05 1.4601353733e+00 -2.5290286525e+00 1.4601353733e+00 2.5290286525e+00 
96000 5.2966577970e+00 -6.9429958146e-05 1.4601353733e+00 -2.5290286525e+00 1.4601353733e+00 2.5290286525e+00 
96100 5.2966577972e+00 -6.9468414454e-05 1.4601353733e+00 -2.5290286525e+00 1.4601353733e+00 2.5290286525e+00 
96200 5.2966577973e+00 -6.9506705500e-05 1.4601353733e+00 -2.5290286525e+00 1.4601353733e+00 2.5290286525e+00 
96300 5.2966577975e+00 -6.9544824861e-05 1.4601353733e+00 -2.5290286525e+00 1.4601353733e+00 2.5290286525e+00 
96400 5.2966577977e+00 -6.9582766618e-05 1.4601353733e+00 -2.5290286525e+00 1.4601353733e+00 2.5290286525e+00 
96500 5.2966577978e+00 -6.9620525331e-05 1.4601353733e+00 -2.5290286525e+00 1.4601353733e+00 2.5290286525e+00 
96600 5.2966577980e+00 -6.9658096007e-05 1.4601353733e+00 -2.5290286525e+00 1.4601353733e+00 2.5290286525e+00 
96700 5.2966577981e+00 -6.9695474070e-05 1.4601353733e+00 -2.5290286525e+00 1.4601353733e+00 2.5290286525e+00 
96800 5.2966577983e+00 -6.9732655341e-05 1.4601353733e+00 -2.5290286525e+00 1.4601353733e+00 2.5290286525e+00 
96900 5.2966577984e+00 -6.9769636004e-05 1.4601353733e+00 -2.5290286525e+00 1.4601353733e+00 2.5290286525e+00 
97000 5.2966577986e+00 -6.9806412593e-05 1.4601353733e+00 -2.5290286525e+00 1.4601353733e+00 2.5290286525e+00 
97100 5.2966577987e+00 -6.9842981960e-05 1.4601353733e+00 -2.5290286525e+00 1.4601353733e+00 2.5290286525e+00 
97200 5.2966577989e+00 -6.9879341262e-05 1.4601353733e+00 -2.5290286525e+00 1.4601353733e+00 2.5290286525e+00 
97300 5.2966577990e+00 -6.9915487938e-05 1.4601353733e+00 -2.5290286525e+00 1.4601353733e+00 2.5290286525e+00 
97400 5.2966577992e+00 -6.9951419693e-05 1.4601353733e+00 -2.5290286525e+00 1.4601353733e+00 2.5290286525e+00 
97500 5.2966577993e+00 -6.9987134476e-05 1.4601353733e+00 -2.5290286525e+00 1.4601353733e+00 2.5290286525e+00 
97600 5.2966577995e+00 -7.0022630471e-05 1.4601353733e+00 -2.5290286525e+00 1.4601353733e+00 2.5290286525e+00 
97700 5.2966577996e+00 -7.0057906075e-05 1.4601353733e+00 -2.5290286525e+00 1.4601353733e+00 2.5290286525e+00 
97800 5.2966577997e+00 -7.0092959887e-05 1.4601353733e+00 -2.5290286525e+00 1.4601353733e+00 2.5290286525e+00 
97900 5.2966577999e+00 -7.0127790698e-05 1.4601353733e+00 -2.5290286525e+00 1.4601353733e+00 2.5290286525e+00 
98000 5.2966578000e+00 -7.0162397470e-05 1.4601353733e+00 -2.5290286525e+00 1.4601353733e+00 2.5290286525e+00 
98100 5.2966578001e+00 -7.0196779331e-05 1.4601353733e+00 -2.5290286525e+00 1.4601353733e+00 2.5290286525e+00 
98200 5.2966578003e+00 -7.0230935563e-05 1.4601353733e+00 -2.5290286525e+00 1.4601353733e+00 2.5290286525e+00 
98300 5.2966578004e+00 -7.0264865588e-05 1.4601353733e+00 -2.5290286525e+00 1.4601353733e+00 2.5290286525e+00 
98400 5.2966578005e+00 -7.0298568963e-05 1.4601353733e+00 -2.5290286525e+00 1.4601353733e+00 2.5290286525e+00 
98500 5.2966578007e+00 -7.0332045367e-05 1.4601353733e+00 -2.5290286525e+00 1.4601353733e+00 2.5290286525e+00 
98600 5.2966578008e+00 -7.0365294595e-05 1.4601353733e+00 -2.5290286525e+00 1.4601353733e+00 2.5290286525e+00 
98700 5.2966578009e+00 -7.0398316549e-05 1.4601353733e+00 -2.5290286525e+00 1.4601353733e+00 2.5290286525e+00 
98800 5.2966578010e+00 -7.0431111230e-05 1.4601353733e+00 -2.5290286525e+00 1.4601353733e+00 2.5290286525e+00 
98900 5.2966578012e+00 -7.0463678730e-05 1.4601353733e+00 -2.5290286525e+00 1.4601353733e+00 2.5290286525e+00 
99000 5.2966578013e+00 -7.0496019229e-05 1.4601353733e+00 -2.5290286525e+00 1.4601353733e+00 2.5290286525e+00 
99100 5.2966578014e+00 -7.0528132986e-05 1.4601353733e+00 -2.5290286525e+00 1.4601353733e+00 2.5290286525e+00 
99200 5.2966578015e+00 -7.0560020331e-05 1.4601353733e+00 -2.5290286525e+00 1.4601353733e+00 2.5290286525e+00 
99300 5.2966578016e+00 -7.0591681668e-05 1.4601353733e+00 -2.5290286525e+00 1.4601353733e+00 2.5290286525e+00 
99400 5.2966578018e+00 -7.0623117459e-05 1.4601353733e+00 -2.5290286525e+00 1.4601353733e+00 2.5290286525e+00 
99500 5.2966578019e+00 -7.0654328227e-05 1.4601353733e+00 -2.5290286525e+00 1.4601353733e+00 2.5290286525e+00 
99600 5.2966578020e+00 -7.0685314548e-05 1.4601353733e+00 -2.5290286525e+00 1.4601353733e+00 2.5290286525e+00 
99700 5.2966578021e+00 -7.0716077051e-05 1.4601353733e+00 -2.5290286525e+00 1.4601353733e+00 2.5290286525e+00 
99800 5.2966578020e+00 -6.9103688371e-05 1.4601377949e+00 -2.5290328468e+00 1.4601377949e+00 2.5290328468e+00 
99900 5.2966578021e+00 -6.9128933889e-05 1.4601377949e+00 -2.5290328468e+00 1.4601377949e+00 2.5290328468e+00 
100000 5.2966578022e+00 -6.9154180944e-05 1.4601377949e+00 -2.5290328468e+00 1.4601377949e+00 2.5290328468e+00 
100100 5.2966578023e+00 -6.9179418078e-05 1.4601377949e+00 -2.5290328468e+00 1.4601377949e+00 2.5290328468e+00 
100200 5.2966578024e+00 -6.9204634600e-05 1.4601377949e+00 -2.5290328468e+00 1.4601377949e+00 2.5290328468e+00 
100300 5.2966578025e+00 -6.9229820543e-05 1.4601377949e+00 -2.5290328468e+00 1.4601377949e+00 2.5290328468e+00 
100400 5.2966578026e+00 -6.9254966619e-05 1.4601377949e+00 -2.5290328468e+00 1.4601377949e+00 2.5290328468e+00 
100500 5.2966578027e+00 -6.9280064182e-05 1.4601377949e+00 -2.5290328468e+00 1.4601377949e+00 2.5290328468e+00 
100600 5.2966578028e+00 -6.9305105187e-05 1.4601377949e+00 -2.5290328468e+00 1.4601377949e+00 2.5290328468e+00 
100700 5.2966578029e+00 -6.9330082154e-05 1.4601377949e+00 -2.5290328468e+00 1.4601377949e+00 2.5290328468e+00 
100800 5.2966578030e+00 -6.9354988135e-05 1.4601377949e+00 -2.5290328468e+00 1.4601377949e+00 2.5290328468e+00 
100900 5.2966578031e+00 -6.9379816680e-05 1.4601377949e+00 -2.5290328468e+00 1.4601377949e+00 2.5290328468e+00 
101000 5.2966578032e+00 -6.9404561810e-05 1.4601377949e+00 -2.5290328468e+00 1.4601377949e+00 2.5290328468e+00 
101100 5.2966578033e+00 -6.9429217985e-05 1.4601377949e+00 -2.5290328468e+00 1.4601377949e+00 2.5290328468e+00 
101200 5.2966578034e+00 -6.9453780077e-05 1.4601377949e+00 -2.5290328468e+00 1.4601377949e+00 2.5290328468e+00 
101300 5.2966578035e+00 -6.9478243350e-05 1.4601377949e+00 -2.5290328468e+00 1.4601377949e+00 2.5290328468e+00 
101400 5.2966578036e+00 -6.9502603429e-05 1.4601377949e+00 -2.5290328468e+00 1.4601377949e+00 2.5290328468e+00 
101500 5.2966578037e+00 -6.9526856279e-05 1.4601377949e+00 -2.5290328468e+00 1.4601377949e+00 2.5290328468e+00 
101600 5.2966578037e+00 -6.9550998192e-05 1.4601377949e+00 -2.5290328468e+00 1.4601377949e+00 2.5290328468e+00 
101700 5.2966578038e+00 -6.9575025753e-05 1.4601377949e+00 -2.5290328468e+00 1.4601377949e+00 2.5290328468e+00 
101800 5.2966578039e+00 -6.9598935831e-05 1.4601377949e+00 -2.5290328468e+00 1.4601377949e+00 2.5290328468e+00 
101900 5.2966578040e+00 -6.9622725562e-05 1.4601377949e+00 -2.5290328468e+00 1.4601377949e+00 2.5290328468e+00 
102000 5.2966578041e+00 -6.9646392323e-05 1.4601377949e+00 -2.5290328468e+00 1.4601377949e+00 2.5290328468e+00 
102100 5.2966578042e+00 -6.9669933727e-05 1.4601377949e+00 -2.5290328468e+00 1.4601377949e+00 2.5290328468e+00 
102200 5.2966578043e+00 -6.9693347603e-05 1.4601377949e+00 -2.5290328468e+00 1.4601377949e+00 2.5290328468e+00 
102300 5.2966578043e+00 -6.9716631980e-05 1.4601377949e+00 -2.5290328468e+00 1.4601377949e+00 2.5290328468e+00 
102400 5.2966578044e+00 -6.9739785078e-05 1.4601377949e+00 -2.5290328468e+00 1.4601377949e+00 2.5290328468e+00 
102500 5.2966578045e+00 -6.9762805295e-05 1.4601377949e+00 -2.5290328468e+00 1.4601377949e+00 2.5290328468e+00 
102600 5.2966578046e+00 -6.9785691193e-05 1.4601377949e+00 -2.5290328468e+00 1.4601377949e+00 2.5290328468e+00 
102700 5.2966578047e+00 -6.9808441490e-05 1.4601377949e+00 -2.5290328468e+00 1.4601377949e+00 2.5290328468e+00 
102800 5.2966578047e+00 -6.9831055049e-05 1.4601377949e+00 -2.5290328468e+00 1.4601377949e+00 2.5290328468e+00 
102900 5.2966578048e+00 -6.9853530866e-05 1.4601377949e+00 -2.5290328468e+00 1.4601377949e+00 2.5290328468e+00 
103000 5.2966578049e+00 -6.9875868063e-05 1.4601377949e+00 -2.5290328468e+00 1.4601377949e+00 2.5290328468e+00 
103100 5.2966578050e+00 -6.9898065882e-05 1.4601377949e+00 -2.5290328468e+00 1.4601377949e+00 2.5290328468e+00 
103200 5.2966578051e+00 -6.9920123671e-05 1.4601377949e+00 -2.5290328468e+00 1.4601377949e+00 2.5290328468e+00 
103300 5.2966578051e+00 -6.9942040885e-05 1.4601377949e+00 -2.5290328468e+00 1.4601377949e+00 2.5290328468e+00 
103400 5.2966578052e+00 -6.9963817067e-05 1.4601377949e+00 -2.5290328468e+00 1.4601377949e+00 2.5290328468e+00 
103500 5.2966578053e+00 -6.9985451856e-05 1.4601377949e+00 -2.5290328468e+00 1.4601377949e+00 2.5290328468e+00 
103600 5.2966578053e+00 -7.0006944967e-05 1.4601377949e+00 -2.5290328468e+00 1.4601377949e+00 2.5290328468e+00 
103700 5.2966578054e+00 -7.0028296196e-05 1.4601377949e+00 -2.5290328468e+00 1.4601377949e+00 2.5290328468e+00 
103800 5.2966578055e+00 -7.0049505408e-05 1.4601377949e+00 -2.5290328468e+00 1.4601377949e+00 2.5290328468e+00 
103900 5.2966578056e+00 -7.0070572535e-05 1.4601377949e+00 -2.5290328468e+00 1.4601377949e+00 2.5290328468e+00 
104000 5.2966578056e+00 -7.0091497568e-05 1.4601377949e+00 -2.5290328468e+00 1.4601377949e+00 2.5290328468e+00 
104100 5.2966578057e+00 -7.0112280560e-05 1.4601377949e+00 -2.5290328468e+00 1.4601377949e+00 2.5290328468e+00 
104200 5.2966578058e+00 -7.0132921612e-05 1.4601377949e+00 -2.5290328468e+00 1.4601377949e+00 2.5290328468e+00 
104300 5.2966578058e+00 -7.0153420876e-05 1.4601377949e+00 -2.5290328468e+00 1.4601377949e+00 2.5290328468e+00 
104400 5.2966578059e+00 -7.0173778550e-05 1.4601377949e+00 -2.5290328468e+00 1.4601377949e+00 2.5290328468e+00 
104500 5.2966578060e+00 -7.0193994871e-05 1.4601377949e+00 -2.5290328468e+00 1.4601377949e+00 2.5290328468e+00 
104600 5.2966578060e+00 -7.0214070119e-05 1.4601377949e+00 -2.5290328468e+00 1.4601377949e+00 2.5290328468e+00 
104700 5.2966578061e+00 -7.0234004608e-05 1.4601377949e+00 -2.5290328468e+00 1.4601377949e+00 2.5290328468e+00 
104800 5.2966578061e+00 -7.0253798683e-05 1.4601377949e+00 -2.5290328468e+00 1.4601377949e+00 2.5290328468e+00 
104900 5.2966578062e+00 -7.0273452722e-05 1.4601377949e+00 -2.5290328468e+00 1.4601377949e+00 2.5290328468e+00 
105000 5.2966578063e+00 -7.0292967131e-05 1.4601377949e+00 -2.5290328468e+00 1.4601377949e+00 2.5290328468e+00 
105100 5.2966578063e+00 -7.0312342342e-05 1.4601377949e+00 -2.5290328468e+00 1.4601377949e+00 2.5290328468e+00 
105200 5.2966578064e+00 -7.0331578809e-05 1.4601377949e+00 -2.5290328468e+00 1.4601377949e+00 2.5290328468e+00 
105300 5.2966578064e+00 -7.0350677011e-05 1.4601377949e+00 -2.5290328468e+00 1.4601377949e+00 2.5290328468e+00 
105400 5.2966578065e+00 -7.0369637443e-05 1.4601377949e+00 -2.5290328468e+00 1.4601377949e+00 2.5290328468e+00 
105500 5.2966578066e+00 -7.0388460624e-05 1.4601377949e+00 -2.5290328468e+00 1.4601377949e+00 2.5290328468e+00 
105600 5.2966578066e+00 -7.0407147084e-05 1.4601377949e+00 -2.5290328468e+00 1.4601377949e+00 2.5290328468e+00 
105700 5.2966578067e+00 -7.0425697373e-05 1.4601377949e+00 -2.5290328468e+00 1.4601377949e+00 2.5290328468e+00 
105800 5.2966578067e+00 -7.0444112053e-05 1.4601377949e+00 -2.5290328468e+00 1.4601377949e+00 2.5290328468e+00 
105900 5.2966578068e+00 -7.0462391700e-05 1.4601377949e+00 -2.5290328468e+00 1.4601377949e+00 2.5290328468e+00 
106000 5.2966578068e+00 -7.0480536900e-05 1.4601377949e+00 -2.5290328468e+00 1.4601377949e+00 2.5290328468e+00 
106100 5.2966578069e+00 -7.0498548252e-05 1.4601377949e+00 -2.5290328468e+00 1.4601377949e+00 2.5290328468e+00 
106200 5.2966578069e+00 -7.0516426363e-05 1.4601377949e+00 -2.5290328468e+00 1.4601377949e+00 2.5290328468e+00 
106300 5.2966578070e+00 -7.0534171850e-05 1.4601377949e+00 -2.5290328468e+00 1.4601377949e+00 2.5290328468e+00 
106400 5.2966578070e+00 -7.0551785337e-05 1.4601377949e+00 -2.5290328468e+00 1.4601377949e+00 2.5290328468e+00 
106500 5.2966578071e+00 -7.0569267457e-05 1.4601377949e+00 -2.5290328468e+00 1.4601377949e+00 2.5290328468e+00 
106600 5.2966578072e+00 -7.0586618845e-05 1.4601377949e+00 -2.5290328468e+00 1.4601377949e+00 2.5290328468e+00 
106700 5.2966578072e+00 -7.0603840149e-05 1.4601377949e+00 -2.5290328468e+00 1.4601377949e+00 2.5290328468e+00 
106800 5.2966578073e+00 -7.0620932017e-05 1.4601377949e+00 -2.5290328468e+00 1.4601377949e+00 2.5290328468e+00 
106900 5.2966578073e+00 -7.0637895101e-05 1.4601377949e+00 -2.5290328468e+00 1.4601377949e+00 2.5290328468e+00 
107000 5.2966578073e+00 -7.0650701322e-05 1.4601377949e+00 -2.5290328468e+00 1.4601377949e+00 2.5290328468e+00 
107000 5.2966578073e+00 -7.0650701322e-05 1.4601377949e+00 -2.5290328468e+00 1.4601377949e+00 2.5290328468e+00 
