# step Hamiltonian StressXX CellTensor1 CellTensor2 CellTensor3 CellTensor4 
0 4.6671240500e+00 -4.6576758669e-01 1.6185780433e+00 -2.8034594071e+00 1.6185780433e+00 2.8034594071e+00 
100 4.6669753684e+00 -4.6926934302e-01 1.6185780433e+00 -2.8034594071e+00 1.6185780433e+00 2.8034594071e+00 
200 4.6589716810e+00 -4.5732304782e-01 1.6330958357e+00 -2.8286049611e+00 1.6330958357e+00 2.8286049611e+00 
300 4.6518722353e+00 -4.4628485816e-01 1.6471173945e+00 -2.8528910132e+00 1.6471173945e+00 2.8528910132e+00 
400 4.6455871227e+00 -4.3607104046e-01 1.6606832655e+00 -2.8763877911e+00 1.6606832655e+00 2.8763877911e+00 
500 4.6400365063e+00 -4.2660410813e-01 1.6738296954e+00 -2.8991580756e+00 1.6738296954e+00 2.8991580756e+00 
600 4.6351490858e+00 -4.1781234305e-01 1.6865890976e+00 -2.9212580085e+00 1.6865890976e+00 2.9212580085e+00 
700 4.6308608160e+00 -4.0962938297e-01 1.6989904588e+00 -2.9427377963e+00 1.6989904588e+00 2.9427377963e+00 
800 4.6271138328e+00 -4.0199386207e-01 1.7110596963e+00 -2.9636423287e+00 1.7110596963e+00 2.9636423287e+00 
900 4.6238555522e+00 -3.9484909460e-01 1.7228199724e+00 -2.9840117246e+00 1.7228199724e+00 2.9840117246e+00 
1000 4.6210379151e+00 -3.8814279305e-01 1.7342919757e+00 -3.0038818170e+00 1.7342919757e+00 3.0038818170e+00 
1100 4.6186167537e+00 -3.8182681423e-01 1.7454941702e+00 -3.0232845870e+00 1.7454941702e+00 3.0232845870e+00 
1200 4.6165512620e+00 -3.7585692766e-01 1.7564430206e+00 -3.0422485523e+00 1.7564430206e+00 3.0422485523e+00 
1300 4.6148035550e+00 -3.7019260192e-01 1.7671531945e+00 -3.0607991177e+00 1.7671531945e+00 3.0607991177e+00 
1400 4.6133383039e+00 -3.6479680550e-01 1.7776377453e+00 -3.0789588923e+00 1.7776377453e+00 3.0789588923e+00 
1500 4.6121224365e+00 -3.5963581923e-01 1.7879082780e+00 -3.0967479767e+00 1.7879082780e+00 3.0967479767e+00 
1600 4.6111248933e+00 -3.5467905816e-01 1.7979751005e+00 -3.1141842248e+00 1.7979751005e+00 3.1141842248e+00 
1700 4.6103164333e+00 -3.4989890108e-01 1.8078473610e+00 -3.1312834815e+00 1.8078473610e+00 3.1312834815e+00 
1800 4.6096694791e+00 -3.4527052629e-01 1.8175331732e+00 -3.1480598004e+00 1.8175331732e+00 3.1480598004e+00 
1900 4.6091580000e+00 -3.4077175251e-01 1.8270397311e+00 -3.1645256418e+00 1.8270397311e+00 3.1645256418e+00 
2000 4.6087574230e+00 -3.3638288416e-01 1.8363734138e+00 -3.1806920544e+00 1.8363734138e+00 3.1806920544e+00 
2100 4.6084445708e+00 -3.3208656026e-01 1.8455398805e+00 -3.1965688403e+00 1.8455398805e+00 3.1965688403e+00 
2200 4.6081976202e+00 -3.2786760646e-01 1.8545441581e+00 -3.2121647068e+00 1.8545441581e+00 3.2121647068e+00 
2300 4.6079960783e+00 -3.2371288990e-01 1.8633907210e+00 -3.2274874032e+00 1.8633907210e+00 3.2274874032e+00 
2400 4.6078207723e+00 -3.1961117667e-01 1.8720835629e+00 -3.2425438470e+00 1.8720835629e+00 3.2425438470e+00 
2500 4.6076538492e+00 -3.1555299153e-01 1.8806262629e+00 -3.2573402374e+00 1.8806262629e+00 3.2573402374e+00 
2600 4.6074787850e+00 -3.1153048019e-01 1.8890220450e+00 -3.2718821586e+00 1.8890220450e+00 3.2718821586e+00 
2700 4.6072803965e+00 -3.0753727376e-01 1.8972738317e+00 -3.2861746724e+00 1.8972738317e+00 3.2861746724e+00 
2800 4.6070448580e+00 -3.0356835586e-01 1.9053842924e+00 -3.3002224024e+00 1.9053842924e+00 3.3002224024e+00 
2900 4.6067597161e+00 -2.9961993227e-01 1.9133558865e+00 -3.3140296083e+00 1.9133558865e+00 3.3140296083e+00 
3000 4.6064139050e+00 -2.9568930367e-01 1.9211909016e+00 -3.3276002526e+00 1.9211909016e+00 3.3276002526e+00 
3100 4.6059977564e+00 -2.9177474143e-01 1.9288914876e+00 -3.3409380589e+00 1.9288914876e+00 3.3409380589e+00 
3200 4.6055030061e+00 -2.8787536721e-01 1.9364596861e+00 -3.3540465632e+00 1.9364596861e+00 3.3540465632e+00 
3300 4.6049227929e+00 -2.8399103647e-01 1.9438974560e+00 -3.3669291585e+00 1.9438974560e+00 3.3669291585e+00 
3400 4.6042516510e+00 -2.8012222661e-01 1.9512066952e+00 -3.3795891322e+00 1.9512066952e+00 3.3795891322e+00 
3500 4.6034854942e+00 -2.7626992999e-01 1.9583892595e+00 -3.3920296985e+00 1.9583892595e+00 3.3920296985e+00 
3600 4.6026215905e+00 -2.7243555250e-01 1.9654469773e+00 -3.4042540243e+00 1.9654469773e+00 3.4042540243e+00 
3700 4.6016585281e+00 -2.6862081816e-01 1.9723816620e+00 -3.4162652505e+00 1.9723816620e+00 3.4162652505e+00 
3800 4.6005961720e+00 -2.6482768002e-01 1.9791951216e+00 -3.4280665086e+00 1.9791951216e+00 3.4280665086e+00 
3900 4.5994356109e+00 -2.6105823808e-01 1.9858891654e+00 -3.4396609326e+00 1.9858891654e+00 3.4396609326e+00 
4000 4.5981790958e+00 -2.5731466429e-01 1.9924656092e+00 -3.4510516674e+00 1.9924656092e+00 3.4510516674e+00 
4100 4.5968299691e+00 -2.5359913519e-01 1.9989262778e+00 -3.4622418737e+00 1.9989262778e+00 3.4622418737e+00 
4200 4.5953925870e+00 -2.4991377213e-01 2.0052730061e+00 -3.4732347295e+00 2.0052730061e+00 3.4732347295e+00 
4300 4.5938722345e+00 -2.4626058945e-01 2.0115076386e+00 -3.4840334298e+00 2.0115076386e+00 3.4840334298e+00 
4400 4.5922750340e+00 -2.4264145035e-01 2.0176320277e+00 -3.4946411830e+00 2.0176320277e+00 3.4946411830e+00 
4500 4.5906078499e+00 -2.3905803056e-01 2.0236480309e+00 -3.5050612062e+00 2.0236480309e+00 3.5050612062e+00 
4600 4.5888781892e+00 -2.3551178949e-01 2.0295575068e+00 -3.5152967187e+00 2.0295575068e+00 3.5152967187e+00 
4700 4.5870940996e+00 -2.3200394857e-01 2.0353623111e+00 -3.5253509346e+00 2.0353623111e+00 3.5253509346e+00 
4800 4.5852640664e+00 -2.2853547643e-01 2.0410642915e+00 -3.5352270544e+00 2.0410642915e+00 3.5352270544e+00 
4900 4.5833969099e+00 -2.2510708035e-01 2.0466652828e+00 -3.5449282559e+00 2.0466652828e+00 3.5449282559e+00 
5000 4.5815016838e+00 -2.2171920356e-01 2.0521671013e+00 -3.5544576851e+00 2.0521671013e+00 3.5544576851e+00 
5100 4.5795875757e+00 -2.1837202766e-01 2.0575715399e+00 -3.5638184474e+00 2.0575715399e+00 3.5638184474e+00 
5200 4.5776638119e+00 -2.1506547969e-01 2.0628803627e+00 -3.5730135981e+00 2.0628803627e+00 3.5730135981e+00 
5300 4.5757395661e+00 -2.1179924304e-01 2.0680952998e+00 -3.5820461341e+00 2.0680952998e+00 3.5820461341e+00 
5400 4.5738238731e+00 -2.0857277170e-01 2.0732180432e+00 -3.5909189859e+00 2.0732180432e+00 3.5909189859e+00 
5500 4.5719255490e+00 -2.0538530718e-01 2.0782502420e+00 -3.5996350100e+00 2.0782502420e+00 3.5996350100e+00 
5600 4.5700531177e+00 -2.0223589743e-01 2.0831934990e+00 -3.6081969823e+00 2.0831934990e+00 3.6081969823e+00 
5700 4.5682147442e+00 -1.9912341730e-01 2.0880493670e+00 -3.6166075924e+00 2.0880493670e+00 3.6166075924e+00 
5800 4.5664181753e+00 -1.9604658998e-01 2.0928193459e+00 -3.6248694382e+00 2.0928193459e+00 3.6248694382e+00 
5900 4.5646706874e+00 -1.9300400893e-01 2.0975048806e+00 -3.6329850224e+00 2.0975048806e+00 3.6329850224e+00 
6000 4.5629790426e+00 -1.8999415996e-01 2.1021073589e+00 -3.6409567486e+00 2.1021073589e+00 3.6409567486e+00 
6100 4.5613494509e+00 -1.8701544303e-01 2.1066281101e+00 -3.6487869194e+00 2.1066281101e+00 3.6487869194e+00 
6200 4.5597875409e+00 -1.8406619354e-01 2.1110684045e+00 -3.6564777349e+00 2.1110684045e+00 3.6564777349e+00 
6300 4.5582983367e+00 -1.8114470290e-01 2.1154294526e+00 -3.6640312917e+00 2.1154294526e+00 3.6640312917e+00 
6400 4.5568862423e+00 -1.7824923802e-01 2.1197124053e+00 -3.6714495833e+00 2.1197124053e+00 3.6714495833e+00 
6500 4.5555550314e+00 -1.7537805985e-01 2.1239183543e+00 -3.6787345008e+00 2.1239183543e+00 3.6787345008e+00 
6600 4.5543078442e+00 -1.7252944067e-01 2.1280483334e+00 -3.6858878345e+00 2.1280483334e+00 3.6858878345e+00 
6700 4.5531471894e+00 -1.6970168009e-01 2.1321033192e+00 -3.6929112758e+00 2.1321033192e+00 3.6929112758e+00 
6800 4.5520749508e+00 -1.6689311987e-01 2.1360842326e+00 -3.6998064201e+00 2.1360842326e+00 3.6998064201e+00 
6900 4.5510923996e+00 -1.6410215737e-01 2.1399919412e+00 -3.7065747700e+00 2.1399919412e+00 3.7065747700e+00 
7000 4.5502002102e+00 -1.6132725783e-01 2.1438272611e+00 -3.7132177389e+00 2.1438272611e+00 3.7132177389e+00 
7100 4.5493984799e+00 -1.5856696530e-01 2.1475909591e+00 -3.7197366550e+00 2.1475909591e+00 3.7197366550e+00 
7200 4.5486867518e+00 -1.5581991255e-01 2.1512837553e+00 -3.7261327657e+00 2.1512837553e+00 3.7261327657e+00 
7300 4.5480640413e+00 -1.5308482968e-01 2.1549063262e+00 -3.7324072425e+00 2.1549063262e+00 3.7324072425e+00 
7400 4.5475288639e+00 -1.5036055176e-01 2.1584593070e+00 -3.7385611858e+00 2.1584593070e+00 3.7385611858e+00 
7500 4.5470792662e+00 -1.4764602542e-01 2.1619432950e+00 -3.7445956300e+00 2.1619432950e+00 3.7445956300e+00 
7600 4.5467128581e+00 -1.4494031447e-01 2.1653588524e+00 -3.7505115490e+00 2.1653588524e+00 3.7505115490e+00 
7700 4.5464268463e+00 -1.4224260459e-01 2.1687065099e+00 -3.7563098618e+00 2.1687065099e+00 3.7563098618e+00 
7800 4.5462180690e+00 -1.3955220719e-01 2.1719867693e+00 -3.7619914378e+00 2.1719867693e+00 3.7619914378e+00 
7900 4.5460830319e+00 -1.3686856243e-01 2.1752001074e+00 -3.7675571027e+00 2.1752001074e+00 3.7675571027e+00 
8000 4.5460179434e+00 -1.3419124146e-01 2.1783469790e+00 -3.7730076442e+00 2.1783469790e+00 3.7730076442e+00 
8100 4.5460187519e+00 -1.3151994790e-01 2.1814278202e+00 -3.7783438176e+00 2.1814278202e+00 3.7783438176e+00 
8200 4.5460811811e+00 -1.2885451863e-01 2.1844430517e+00 -3.7835663517e+00 2.1844430517e+00 3.7835663517e+00 
8300 4.5462007670e+00 -1.2619492387e-01 2.1873930822e+00 -3.7886759546e+00 2.1873930822e+00 3.7886759546e+00 
8400 4.5463728932e+00 -1.2354126656e-01 2.1902783118e+00 -3.7936733188e+00 2.1902783118e+00 3.7936733188e+00 
8500 4.5465928267e+00 -1.2089378112e-01 2.1930991347e+00 -3.7985591274e+00 2.1930991347e+00 3.7985591274e+00 
8600 4.5468557518e+00 -1.1825283153e-01 2.1958559429e+00 -3.8033340592e+00 2.1958559429e+00 3.8033340592e+00 
8700 4.5471568044e+00 -1.1561890881e-01 2.1985491289e+00 -3.8079987941e+00 2.1985491289e+00 3.8079987941e+00 
8800 4.5474911048e+00 -1.1299262780e-01 2.2011790889e+00 -3.8125540186e+00 2.2011790889e+00 3.8125540186e+00 
8900 4.5478537891e+00 -1.1037472344e-01 2.2037462258e+00 -3.8170004301e+00 2.2037462258e+00 3.8170004301e+00 
9000 4.5482400400e+00 -1.0776604630e-01 2.2062509517e+00 -3.8213387426e+00 2.2062509517e+00 3.8213387426e+00 
9100 4.5486451157e+00 -1.0516755765e-01 2.2086936907e+00 -3.8255696907e+00 2.2086936907e+00 3.8255696907e+00 
9200 4.5490643780e+00 -1.0258032384e-01 2.2110748817e+00 -3.8296940345e+00 2.2110748817e+00 3.8296940345e+00 
9300 4.5494933183e+00 -1.0000551017e-01 2.2133949805e+00 -3.8337125634e+00 2.2133949805e+00 3.8337125634e+00 
9400 4.5499275825e+00 -9.7444374214e-02 2.2156544621e+00 -3.8376261004e+00 2.2156544621e+00 3.8376261004e+00 
9500 4.5503629934e+00 -9.4898258585e-02 2.2178538230e+00 -3.8414355052e+00 2.2178538230e+00 3.8414355052e+00 
9600 4.5507955726e+00 -9.2368583240e-02 2.2199935831e+00 -3.8451416784e+00 2.2199935831e+00 3.8451416784e+00 
9700 4.5512215593e+00 -8.9856837311e-02 2.2220742872e+00 -3.8487455637e+00 2.2220742872e+00 3.8487455637e+00 
9800 4.5516374279e+00 -8.7364570517e-02 2.2240965070e+00 -3.8522481511e+00 2.2240965070e+00 3.8522481511e+00 
9900 4.5520399031e+00 -8.4893384194e-02 2.2260608421e+00 -3.8556504793e+00 2.2260608421e+00 3.8556504793e+00 
10000 4.5524259739e+00 -8.2444922007e-02 2.2279679215e+00 -3.8589536376e+00 2.2279679215e+00 3.8589536376e+00 
10100 4.5527929040e+00 -8.0020860378e-02 2.2298184042e+00 -3.8621587678e+00 2.2298184042e+00 3.8621587678e+00 
10200 4.5531382418e+00 -7.7622898710e-02 2.2316129805e+00 -3.8652670650e+00 2.2316129805e+00 3.8652670650e+00 
10300 4.5534598266e+00 -7.5252749456e-02 2.2333523720e+00 -3.8682797795e+00 2.2333523720e+00 3.8682797795e+00 
10400 4.5537557939e+00 -7.2912128103e-02 2.2350373323e+00 -3.8711982164e+00 2.2350373323e+00 3.8711982164e+00 
10500 4.5540245778e+00 -7.0602743154e-02 2.2366686472e+00 -3.8740237366e+00 2.2366686472e+00 3.8740237366e+00 
10600 4.5542649116e+00 -6.8326286168e-02 2.2382471340e+00 -3.8767577560e+00 2.2382471340e+00 3.8767577560e+00 
10700 4.5544758256e+00 -6.6084421935e-02 2.2397736421e+00 -3.8794017455e+00 2.2397736421e+00 3.8794017455e+00 
10800 4.5546566437e+00 -6.3878778870e-02 2.2412490517e+00 -3.8819572300e+00 2.2412490517e+00 3.8819572300e+00 
10900 4.5548069774e+00 -6.1710939698e-02 2.2426742736e+00 -3.8844257867e+00 2.2426742736e+00 3.8844257867e+00 
11000 4.5549267175e+00 -5.9582432493e-02 2.2440502479e+00 -3.8868090442e+00 2.2440502479e+00 3.8868090442e+00 
11100 4.5550160245e+00 -5.7494722169e-02 2.2453779433e+00 -3.8891086800e+00 2.2453779433e+00 3.8891086800e+00 
11200 4.5550753170e+00 -5.5449202457e-02 2.2466583555e+00 -3.8913264189e+00 2.2466583555e+00 3.8913264189e+00 
11300 4.5551052579e+00 -5.3447188462e-02 2.2478925056e+00 -3.8934640297e+00 2.2478925056e+00 3.8934640297e+00 
11400 4.5551067397e+00 -5.1489909845e-02 2.2490814392e+00 -3.8955233230e+00 2.2490814392e+00 3.8955233230e+00 
11500 4.5550808680e+00 -4.9578504679e-02 2.2502262238e+00 -3.8975061481e+00 2.2502262238e+00 3.8975061481e+00 
11600 4.5550289436e+00 -4.7714014025e-02 2.2513279474e+00 -3.8994143894e+00 2.2513279474e+00 3.8994143894e+00 
11700 4.5549524438e+00 -4.5897377281e-02 2.2523877165e+00 -3.9012499633e+00 2.2523877165e+00 3.9012499633e+00 
11800 4.5548530027e+00 -4.4129428297e-02 2.2534066538e+00 -3.9030148144e+00 2.2534066538e+00 3.9030148144e+00 
11900 4.5547323903e+00 -4.2410892319e-02 2.2543858961e+00 -3.9047109119e+00 2.2543858961e+00 3.9047109119e+00 
12000 4.5545924920e+00 -4.0742383729e-02 2.2553265922e+00 -3.9063402453e+00 2.2553265922e+00 3.9063402453e+00 
12100 4.5544352867e+00 -3.9124404616e-02 2.2562299004e+00 -3.9079048211e+00 2.2562299004e+00 3.9079048211e+00 
12200 4.5542628253e+00 -3.7557344146e-02 2.2570969865e+00 -3.9094066582e+00 2.2570969865e+00 3.9094066582e+00 
12300 4.5540772097e+00 -3.6041478727e-02 2.2579290210e+00 -3.9108477842e+00 2.2579290210e+00 3.9108477842e+00 
12400 4.5538805707e+00 -3.4576972935e-02 2.2587271772e+00 -3.9122302313e+00 2.2587271772e+00 3.9122302313e+00 
12500 4.5536750479e+00 -3.3163881166e-02 2.2594926287e+00 -3.9135560323e+00 2.2594926287e+00 3.9135560323e+00 
12600 4.5534627695e+00 -3.1802149981e-02 2.2602265474e+00 -3.9148272167e+00 2.2602265474e+00 3.9148272167e+00 
12700 4.5532458326e+00 -3.0491621083e-02 2.2609301007e+00 -3.9160458068e+00 2.2609301007e+00 3.9160458068e+00 
12800 4.5530262853e+00 -2.9232034874e-02 2.2616044501e+00 -3.9172138142e+00 2.2616044501e+00 3.9172138142e+00 
12900 4.5528061093e+00 -2.8023034543e-02 2.2622507485e+00 -3.9183332359e+00 2.2622507485e+00 3.9183332359e+00 
13000 4.5525872041e+00 -2.6864170610e-02 2.2628701386e+00 -3.9194060510e+00 2.2628701386e+00 3.9194060510e+00 
13100 4.5523713725e+00 -2.5754905857e-02 2.2634637508e+00 -3.9204342174e+00 2.2634637508e+00 3.9204342174e+00 
13200 4.5521603079e+00 -2.4694620598e-02 2.2640327014e+00 -3.9214196689e+00 2.2640327014e+00 3.9214196689e+00 
13300 4.5519555823e+00 -2.3682618196e-02 2.2645780913e+00 -3.9223643119e+00 2.2645780913e+00 3.9223643119e+00 
13400 4.5517586373e+00 -2.2718130772e-02 2.2651010040e+00 -3.9232700231e+00 2.2651010040e+00 3.9232700231e+00 
13500 4.5515707759e+00 -2.1800325042e-02 2.2656025041e+00 -3.9241386468e+00 2.2656025041e+00 3.9241386468e+00 
13600 4.5513931558e+00 -2.0928308209e-02 2.2660836365e+00 -3.9249719926e+00 2.2660836365e+00 3.9249719926e+00 
13700 4.5512267855e+00 -2.0101133854e-02 2.2665454248e+00 -3.9257718335e+00 2.2665454248e+00 3.9257718335e+00 
13800 4.5510725209e+00 -1.9317807770e-02 2.2669888704e+00 -3.9265399037e+00 2.2669888704e+00 3.9265399037e+00 
13900 4.5509310645e+00 -1.8577293686e-02 2.2674149513e+00 -3.9272778974e+00 2.2674149513e+00 3.9272778974e+00 
14000 4.5508029656e+00 -1.7878518832e-02 2.2678246216e+00 -3.9279874673e+00 2.2678246216e+00 3.9279874673e+00 
14100 4.5506886224e+00 -1.7220379303e-02 2.2682188107e+00 -3.9286702229e+00 2.2682188107e+00 3.9286702229e+00 
14200 4.5505882853e+00 -1.6601745192e-02 2.2685984227e+00 -3.9293277301e+00 2.2685984227e+00 3.9293277301e+00 
14300 4.5505020618e+00 -1.6021465449e-02 2.2689643356e+00 -3.9299615099e+00 2.2689643356e+00 3.9299615099e+00 
14400 4.5504299226e+00 -1.5478372459e-02 2.2693174016e+00 -3.9305730381e+00 2.2693174016e+00 3.9305730381e+00 
14500 4.5503717083e+00 -1.4971286301e-02 2.2696584460e+00 -3.9311637443e+00 2.2696584460e+00 3.9311637443e+00 
14600 4.5503271382e+00 -1.4499018695e-02 2.2699882676e+00 -3.9317350121e+00 2.2699882676e+00 3.9317350121e+00 
14700 4.5502958185e+00 -1.4060376611e-02 2.2703076384e+00 -3.9322881785e+00 2.2703076384e+00 3.9322881785e+00 
14800 4.5502772526e+00 -1.3654165555e-02 2.2706173034e+00 -3.9328245341e+00 2.2706173034e+00 3.9328245341e+00 
14900 4.5502708510e+00 -1.3279192518e-02 2.2709179808e+00 -3.9333453226e+00 2.2709179808e+00 3.9333453226e+00 
15000 4.5502759421e+00 -1.2934268609e-02 2.2712103621e+00 -3.9338517418e+00 2.2712103621e+00 3.9338517418e+00 
15100 4.5502917832e+00 -1.2618211374e-02 2.2714951120e+00 -3.9343449431e+00 2.2714951120e+00 3.9343449431e+00 
15200 4.5503175715e+00 -1.2329846817e-02 2.2717728689e+00 -3.9348260322e+00 2.2717728689e+00 3.9348260322e+00 
15300 4.5503524552e+00 -1.2068011147e-02 2.2720442449e+00 -3.9352960692e+00 2.2720442449e+00 3.9352960692e+00 
15400 4.5503955448e+00 -1.1831552253e-02 2.2723098261e+00 -3.9357560694e+00 2.2723098261e+00 3.9357560694e+00 
15500 4.5504459237e+00 -1.1619330947e-02 2.2725701731e+00 -3.9362070035e+00 2.2725701731e+00 3.9362070035e+00 
15600 4.5505026588e+00 -1.1430221988e-02 2.2728258208e+00 -3.9366497984e+00 2.2728258208e+00 3.9366497984e+00 
15700 4.5505648104e+00 -1.1263114911e-02 2.2730772794e+00 -3.9370853375e+00 2.2730772794e+00 3.9370853375e+00 
15800 4.5506314422e+00 -1.1116914678e-02 2.2733250343e+00 -3.9375144615e+00 2.2733250343e+00 3.9375144615e+00 
15900 4.5507016299e+00 -1.0990542196e-02 2.2735695465e+00 -3.9379379691e+00 2.2735695465e+00 3.9379379691e+00 
16000 4.5507744696e+00 -1.0882934694e-02 2.2738112531e+00 -3.9383566172e+00 2.2738112531e+00 3.9383566172e+00 
16100 4.5508490860e+00 -1.0793046009e-02 2.2740505677e+00 -3.9387711223e+00 2.2740505677e+00 3.9387711223e+00 
16200 4.5509246384e+00 -1.0719846785e-02 2.2742878807e+00 -3.9391821604e+00 2.2742878807e+00 3.9391821604e+00 
16300 4.5510003279e+00 -1.0662324615e-02 2.2745235596e+00 -3.9395903682e+00 2.2745235596e+00 3.9395903682e+00 
16400 4.5510754019e+00 -1.0619484133e-02 2.2747579495e+00 -3.9399963434e+00 2.2747579495e+00 3.9399963434e+00 
16500 4.5511491593e+00 -1.0590347091e-02 2.2749913736e+00 -3.9404006458e+00 2.2749913736e+00 3.9404006458e+00 
16600 4.5512209539e+00 -1.0573952412e-02 2.2752241333e+00 -3.9408037975e+00 2.2752241333e+00 3.9408037975e+00 
16700 4.5512901979e+00 -1.0569356259e-02 2.2754565089e+00 -3.9412062839e+00 2.2754565089e+00 3.9412062839e+00 
16800 4.5513563634e+00 -1.0575632108e-02 2.2756887598e+00 -3.9416085542e+00 2.2756887598e+00 3.9416085542e+00 
16900 4.5514189846e+00 -1.0591870847e-02 2.2759211249e+00 -3.9420110223e+00 2.2759211249e+00 3.9420110223e+00 
17000 4.5514776583e+00 -1.0617180906e-02 2.2761538230e+00 -3.9424140673e+00 2.2761538230e+00 3.9424140673e+00 
17100 4.5515320437e+00 -1.0650688429e-02 2.2763870534e+00 -3.9428180341e+00 2.2763870534e+00 3.9428180341e+00 
17200 4.5515818626e+00 -1.0691537474e-02 2.2766209958e+00 -3.9432232343e+00 2.2766209958e+00 3.9432232343e+00 
17300 4.5516268977e+00 -1.0738890273e-02 2.2768558114e+00 -3.9436299468e+00 2.2768558114e+00 3.9436299468e+00 
17400 4.5516669912e+00 -1.0791927526e-02 2.2770916426e+00 -3.9440384185e+00 2.2770916426e+00 3.9440384185e+00 
17500 4.5517020425e+00 -1.0849848739e-02 2.2773286141e+00 -3.9444488651e+00 2.2773286141e+00 3.9444488651e+00 
17600 4.5517320059e+00 -1.0911872612e-02 2.2775668326e+00 -3.9448614717e+00 2.2775668326e+00 3.9448614717e+00 
17700 4.5517568874e+00 -1.0977237462e-02 2.2778063879e+00 -3.9452763937e+00 2.2778063879e+00 3.9452763937e+00 
17800 4.5517767418e+00 -1.1045201683e-02 2.2780473529e+00 -3.9456937573e+00 2.2780473529e+00 3.9456937573e+00 
17900 4.5517916688e+00 -1.1115044241e-02 2.2782897841e+00 -3.9461136605e+00 2.2782897841e+00 3.9461136605e+00 
18000 4.5518018094e+00 -1.1186065194e-02 2.2785337224e+00 -3.9465361740e+00 2.2785337224e+00 3.9465361740e+00 
18100 4.5518073420e+00 -1.1257586233e-02 2.2787791932e+00 -3.9469613418e+00 2.2787791932e+00 3.9469613418e+00 
18200 4.5518084786e+00 -1.1328951242e-02 2.2790262068e+00 -3.9473891819e+00 2.2790262068e+00 3.9473891819e+00 
18300 4.5518054604e+00 -1.1399526865e-02 2.2792747594e+00 -3.9478196876e+00 2.2792747594e+00 3.9478196876e+00 
18400 4.5517985538e+00 -1.1468703074e-02 2.2795248331e+00 -3.9482528280e+00 2.2795248331e+00 3.9482528280e+00 
18500 4.5517880464e+00 -1.1535893742e-02 2.2797763968e+00 -3.9486885491e+00 2.2797763968e+00 3.9486885491e+00 
18600 4.5517742429e+00 -1.1600537193e-02 2.2800294064e+00 -3.9491267747e+00 2.2800294064e+00 3.9491267747e+00 
18700 4.5517574612e+00 -1.1662096749e-02 2.2802838056e+00 -3.9495674070e+00 2.2802838056e+00 3.9495674070e+00 
18800 4.5517380287e+00 -1.1720061245e-02 2.2805395263e+00 -3.9500103282e+00 2.2805395263e+00 3.9500103282e+00 
18900 4.5517162783e+00 -1.1773945520e-02 2.2807964892e+00 -3.9504554010e+00 2.2807964892e+00 3.9504554010e+00 
19000 4.5516925454e+00 -1.1823290875e-02 2.2810546045e+00 -3.9509024698e+00 2.2810546045e+00 3.9509024698e+00 
19100 4.5516671642e+00 -1.1867665488e-02 2.2813137722e+00 -3.9513513614e+00 2.2813137722e+00 3.9513513614e+00 
19200 4.5516404651e+00 -1.1906664790e-02 2.2815738831e+00 -3.9518018867e+00 2.2815738831e+00 3.9518018867e+00 
19300 4.5516127713e+00 -1.1939911788e-02 2.2818348190e+00 -3.9522538410e+00 2.2818348190e+00 3.9522538410e+00 
19400 4.5515843965e+00 -1.1967057342e-02 2.2820964536e+00 -3.9527070054e+00 2.2820964536e+00 3.9527070054e+00 
19500 4.5515556429e+00 -1.1987780379e-02 2.2823586530e+00 -3.9531611481e+00 2.2823586530e+00 3.9531611481e+00 
19600 4.5515267985e+00 -1.2001788055e-02 2.2826212763e+00 -3.9536160250e+00 2.2826212763e+00 3.9536160250e+00 
19700 4.5514981355e+00 -1.2008815851e-02 2.2828841762e+00 -3.9540713810e+00 2.2828841762e+00 3.9540713810e+00 
19800 4.5514699090e+00 -1.2008627610e-02 2.2831471998e+00 -3.9545269511e+00 2.2831471998e+00 3.9545269511e+00 
19900 4.5514423553e+00 -1.2001015509e-02 2.2834101889e+00 -3.9549824617e+00 2.2834101889e+00 3.9549824617e+00 
20000 4.5514156911e+00 -1.1985799959e-02 2.2836729811e+00 -3.9554376311e+00 2.2836729811e+00 3.9554376311e+00 
20100 4.5513901126e+00 -1.1962829448e-02 2.2839354098e+00 -3.9558921710e+00 2.2839354098e+00 3.9558921710e+00 
20200 4.5513657947e+00 -1.1931980313e-02 2.2841973055e+00 -3.9563457877e+00 2.2841973055e+00 3.9563457877e+00 
20300 4.5513428911e+00 -1.1893156441e-02 2.2844584959e+00 -3.9567981827e+00 2.2844584959e+00 3.9567981827e+00 
20400 4.5513215337e+00 -1.1846288915e-02 2.2847188067e+00 -3.9572490542e+00 2.2847188067e+00 3.9572490542e+00 
20500 4.5513018329e+00 -1.1791335584e-02 2.2849780621e+00 -3.9576980977e+00 2.2849780621e+00 3.9576980977e+00 
20600 4.5512838778e+00 -1.1728280576e-02 2.2852360855e+00 -3.9581450074e+00 2.2852360855e+00 3.9581450074e+00 
20700 4.5512677367e+00 -1.1657133749e-02 2.2854927001e+00 -3.9585894769e+00 2.2854927001e+00 3.9585894769e+00 
20800 4.5512534575e+00 -1.1577930076e-02 2.2857477294e+00 -3.9590312006e+00 2.2857477294e+00 3.9590312006e+00 
20900 4.5512410686e+00 -1.1490728983e-02 2.2860009976e+00 -3.9594698739e+00 2.2860009976e+00 3.9594698739e+00 
21000 4.5512305797e+00 -1.1395613617e-02 2.2862523303e+00 -3.9599051951e+00 2.2862523303e+00 3.9599051951e+00 
21100 4.5512219827e+00 -1.1292690078e-02 2.2865015553e+00 -3.9603368653e+00 2.2865015553e+00 3.9603368653e+00 
21200 4.5512152530e+00 -1.1182086585e-02 2.2867485022e+00 -3.9607645900e+00 2.2867485022e+00 3.9607645900e+00 
21300 4.5512103505e+00 -1.1063952609e-02 2.2869930041e+00 -3.9611880797e+00 2.2869930041e+00 3.9611880797e+00 
21400 4.5512072206e+00 -1.0938457955e-02 2.2872348970e+00 -3.9616070505e+00 2.2872348970e+00 3.9616070505e+00 
21500 4.5512057962e+00 -1.0805791805e-02 2.2874740209e+00 -3.9620212251e+00 2.2874740209e+00 3.9620212251e+00 
21600 4.5512059982e+00 -1.0666161725e-02 2.2877102198e+00 -3.9624303337e+00 2.2877102198e+00 3.9624303337e+00 
21700 4.5512077374e+00 -1.0519792644e-02 2.2879433425e+00 -3.9628341140e+00 2.2879433425e+00 3.9628341140e+00 
21800 4.5512109156e+00 -1.0366925796e-02 2.2881732426e+00 -3.9632323127e+00 2.2881732426e+00 3.9632323127e+00 
21900 4.5512154273e+00 -1.0207817644e-02 2.2883997791e+00 -3.9636246855e+00 2.2883997791e+00 3.9636246855e+00 
22000 4.5512211606e+00 -1.0042738777e-02 2.2886228167e+00 -3.9640109979e+00 2.2886228167e+00 3.9640109979e+00 
22100 4.5512279989e+00 -9.8719727947e-03 2.2888422259e+00 -3.9643910258e+00 2.2888422259e+00 3.9643910258e+00 
22200 4.5512358220e+00 -9.6958151786e-03 2.2890578836e+00 -3.9647645559e+00 2.2890578836e+00 3.9647645559e+00 
22300 4.5512445076e+00 -9.5145721486e-03 2.2892696730e+00 -3.9651313859e+00 2.2892696730e+00 3.9651313859e+00 
22400 4.5512539322e+00 -9.3285595196e-03 2.2894774842e+00 -3.9654913254e+00 2.2894774842e+00 3.9654913254e+00 
22500 4.5512639725e+00 -9.1381015539e-03 2.2896812140e+00 -3.9658441959e+00 2.2896812140e+00 3.9658441959e+00 
22600 4.5512745064e+00 -8.9435298170e-03 2.2898807666e+00 -3.9661898310e+00 2.2898807666e+00 3.9661898310e+00 
22700 4.5512854142e+00 -8.7451820380e-03 2.2900760531e+00 -3.9665280772e+00 2.2900760531e+00 3.9665280772e+00 
22800 4.5512965792e+00 -8.5434009812e-03 2.2902669923e+00 -3.9668587935e+00 2.2902669923e+00 3.9668587935e+00 
22900 4.5513078888e+00 -8.3385333296e-03 2.2904535102e+00 -3.9671818520e+00 2.2904535102e+00 3.9671818520e+00 
23000 4.5513192353e+00 -8.1309285853e-03 2.2906355406e+00 -3.9674971379e+00 2.2906355406e+00 3.9674971379e+00 
23100 4.5513305165e+00 -7.9209379907e-03 2.2908130248e+00 -3.9678045496e+00 2.2908130248e+00 3.9678045496e+00 
23200 4.5513416366e+00 -7.7089134713e-03 2.2909859119e+00 -3.9681039988e+00 2.2909859119e+00 3.9681039988e+00 
23300 4.5513525060e+00 -7.4952066059e-03 2.2911541584e+00 -3.9683954103e+00 2.2911541584e+00 3.9683954103e+00 
23400 4.5513630428e+00 -7.2801676251e-03 2.2913177287e+00 -3.9686787224e+00 2.2913177287e+00 3.9686787224e+00 
23500 4.5513731722e+00 -7.0641444411e-03 2.2914765947e+00 -3.9689538864e+00 2.2914765947e+00 3.9689538864e+00 
23600 4.5513828273e+00 -6.8474817125e-03 2.2916307360e+00 -3.9692208670e+00 2.2916307360e+00 3.9692208670e+00 
23700 4.5513919491e+00 -6.6305199446e-03 2.2917801396e+00 -3.9694796416e+00 2.2917801396e+00 3.9694796416e+00 
23800 4.5514004867e+00 -6.4135946287e-03 2.2919247998e+00 -3.9697302005e+00 2.2919247998e+00 3.9697302005e+00 
23900 4.5514083972e+00 -6.1970354211e-03 2.2920647185e+00 -3.9699725466e+00 2.2920647185e+00 3.9699725466e+00 
24000 4.5514156458e+00 -5.9811653647e-03 2.2921999044e+00 -3.9702066955e+00 2.2921999044e+00 3.9702066955e+00 
24100 4.5514222055e+00 -5.7663001535e-03 2.2923303734e+00 -3.9704326745e+00 2.2923303734e+00 3.9704326745e+00 
24200 4.5514280572e+00 -5.5527474420e-03 2.2924561483e+00 -3.9706505230e+00 2.2924561483e+00 3.9706505230e+00 
24300 4.5514331891e+00 -5.3408062004e-03 2.2925772585e+00 -3.9708602920e+00 2.2925772585e+00 3.9708602920e+00 
24400 4.5514375967e+00 -5.1307661154e-03 2.2926937399e+00 -3.9710620437e+00 2.2926937399e+00 3.9710620437e+00 
24500 4.5514412824e+00 -4.9229070390e-03 2.2928056346e+00 -3.9712558511e+00 2.2928056346e+00 3.9712558511e+00 
24600 4.5514442548e+00 -4.7174984839e-03 2.2929129910e+00 -3.9714417978e+00 2.2929129910e+00 3.9714417978e+00 
24700 4.5514465289e+00 -4.5147991664e-03 2.2930158631e+00 -3.9716199774e+00 2.2930158631e+00 3.9716199774e+00 
24800 4.5514481250e+00 -4.3150565971e-03 2.2931143105e+00 -3.9717904934e+00 2.2931143105e+00 3.9717904934e+00 
24900 4.5514490685e+00 -4.1185067183e-03 2.2932083984e+00 -3.9719534584e+00 2.2932083984e+00 3.9719534584e+00 
25000 4.5514493896e+00 -3.9253735884e-03 2.2932981969e+00 -3.9721089940e+00 2.2932981969e+00 3.9721089940e+00 
25100 4.5514491223e+00 -3.7358691116e-03 2.2933837810e+00 -3.9722572300e+00 2.2933837810e+00 3.9722572300e+00 
25200 4.5514483044e+00 -3.5501928143e-03 2.2934652304e+00 -3.9723983044e+00 2.2934652304e+00 3.9723983044e+00 
25300 4.5514469763e+00 -3.3685316638e-03 2.2935426288e+00 -3.9725323624e+00 2.2935426288e+00 3.9725323624e+00 
25400 4.5514451814e+00 -3.1910599320e-03 2.2936160643e+00 -3.9726595565e+00 2.2936160643e+00 3.9726595565e+00 
25500 4.5514429645e+00 -3.0179390999e-03 2.2936856286e+00 -3.9727800454e+00 2.2936856286e+00 3.9727800454e+00 
25600 4.5514403721e+00 -2.8493178026e-03 2.2937514169e+00 -3.9728939940e+00 2.2937514169e+00 3.9728939940e+00 
25700 4.5514374516e+00 -2.6853318145e-03 2.2938135276e+00 -3.9730015730e+00 2.2938135276e+00 3.9730015730e+00 
25800 4.5514342508e+00 -2.5261040705e-03 2.2938720621e+00 -3.9731029576e+00 2.2938720621e+00 3.9731029576e+00 
25900 4.5514308174e+00 -2.3717447240e-03 2.2939271243e+00 -3.9731983282e+00 2.2939271243e+00 3.9731983282e+00 
26000 4.5514271986e+00 -2.2223512390e-03 2.2939788207e+00 -3.9732878689e+00 2.2939788207e+00 3.9732878689e+00 
26100 4.5514234409e+00 -2.0780085136e-03 2.2940272597e+00 -3.9733717677e+00 2.2940272597e+00 3.9733717677e+00 
26200 4.5514195893e+00 -1.9387890357e-03 2.2940725515e+00 -3.9734502155e+00 2.2940725515e+00 3.9734502155e+00 
26300 4.5514156873e+00 -1.8047530652e-03 2.2941148081e+00 -3.9735234061e+00 2.2941148081e+00 3.9735234061e+00 
26400 4.5514117765e+00 -1.6759488452e-03 2.2941541427e+00 -3.9735915355e+00 2.2941541427e+00 3.9735915355e+00 
26500 4.5514078960e+00 -1.5524128362e-03 2.2941906693e+00 -3.9736548014e+00 2.2941906693e+00 3.9736548014e+00 
26600 4.5514040828e+00 -1.4341699747e-03 2.2942245029e+00 -3.9737134030e+00 2.2942245029e+00 3.9737134030e+00 
26700 4.5514003711e+00 -1.3212339520e-03 2.2942557591e+00 -3.9737675403e+00 2.2942557591e+00 3.9737675403e+00 
26800 4.5513967921e+00 -1.2136075131e-03 2.2942845535e+00 -3.9738174137e+00 2.2942845535e+00 3.9738174137e+00 
26900 4.5513933742e+00 -1.1112827727e-03 2.2943110021e+00 -3.9738632240e+00 2.2943110021e+00 3.9738632240e+00 
27000 4.5513901427e+00 -1.0142415468e-03 2.2943352203e+00 -3.9739051712e+00 2.2943352203e+00 3.9739051712e+00 
27100 4.5513871195e+00 -9.2245569898e-04 2.2943573235e+00 -3.9739434551e+00 2.2943573235e+00 3.9739434551e+00 
27200 4.5513843237e+00 -8.3588749855e-04 2.2943774263e+00 -3.9739782741e+00 2.2943774263e+00 3.9739782741e+00 
27300 4.5513817709e+00 -7.5448998966e-04 2.2943956423e+00 -3.9740098251e+00 2.2943956423e+00 3.9740098251e+00 
27400 4.5513794736e+00 -6.7820736973e-04 2.2944120843e+00 -3.9740383036e+00 2.2944120843e+00 3.9740383036e+00 
27500 4.5513774414e+00 -6.0697537565e-04 2.2944268639e+00 -3.9740639025e+00 2.2944268639e+00 3.9740639025e+00 
27600 4.5513756806e+00 -5.4072167638e-04 2.2944400911e+00 -3.9740868127e+00 2.2944400911e+00 3.9740868127e+00 
27700 4.5513741946e+00 -4.7936627062e-04 2.2944518744e+00 -3.9741072220e+00 2.2944518744e+00 3.9741072220e+00 
27800 4.5513729843e+00 -4.2282188828e-04 2.2944623206e+00 -3.9741253154e+00 2.2944623206e+00 3.9741253154e+00 
27900 4.5513720475e+00 -3.7099439465e-04 2.2944715346e+00 -3.9741412744e+00 2.2944715346e+00 3.9741412744e+00 
28000 4.5513713800e+00 -3.2378319605e-04 2.2944796191e+00 -3.9741552772e+00 2.2944796191e+00 3.9741552772e+00 
28100 4.5513709749e+00 -2.8108164597e-04 2.2944866748e+00 -3.9741674981e+00 2.2944866748e+00 3.9741674981e+00 
28200 4.5513708234e+00 -2.4277745072e-04 2.2944928000e+00 -3.9741781072e+00 2.2944928000e+00 3.9741781072e+00 
28300 4.5513709148e+00 -2.0875307378e-04 2.2944980904e+00 -3.9741872705e+00 2.2944980904e+00 3.9741872705e+00 
28400 4.5513712365e+00 -1.7888613776e-04 2.2945026394e+00 -3.9741951496e+00 2.2945026394e+00 3.9741951496e+00 
28500 4.5513717746e+00 -1.5304982357e-04 2.2945065376e+00 -3.9742019013e+00 2.2945065376e+00 3.9742019013e+00 
28600 4.5513725139e+00 -1.3111326571e-04 2.2945098727e+00 -3.9742076780e+00 2.2945098727e+00 3.9742076780e+00 
28700 4.5513734380e+00 -1.1294194328e-04 2.2945127298e+00 -3.9742126266e+00 2.2945127298e+00 3.9742126266e+00 
28800 4.5513745297e+00 -9.8398065954e-05 2.2945151909e+00 -3.9742168894e+00 2.2945151909e+00 3.9742168894e+00 
28900 4.5513757713e+00 -8.7340954499e-05 2.2945173351e+00 -3.9742206033e+00 2.2945173351e+00 3.9742206033e+00 
29000 4.5513771445e+00 -7.9627415143e-05 2.2945192384e+00 -3.9742238998e+00 2.2945192384e+00 3.9742238998e+00 
29100 4.5513786308e+00 -7.5112107508e-05 2.2945209736e+00 -3.9742269052e+00 2.2945209736e+00 3.9742269052e+00 
29200 4.5513802116e+00 -7.3647905538e-05 2.2945226103e+00 -3.9742297402e+00 2.2945226103e+00 3.9742297402e+00 
29300 4.5513818685e+00 -7.5086251093e-05 2.2945242152e+00 -3.9742325199e+00 2.2945242152e+00 3.9742325199e+00 
29400 4.5513835833e+00 -7.9277499845e-05 2.2945258514e+00 -3.9742353539e+00 2.2945258514e+00 3.9742353539e+00 
29500 4.5513853384e+00 -8.6071259110e-05 2.2945275789e+00 -3.9742383461e+00 2.2945275789e+00 3.9742383461e+00 
29600 4.5513871166e+00 -9.5316717311e-05 2.2945294545e+00 -3.9742415947e+00 2.2945294545e+00 3.9742415947e+00 
29700 4.5513889015e+00 -1.0686296481e-04 2.2945315316e+00 -3.9742451922e+00 2.2945315316e+00 3.9742451922e+00 
29800 4.5513906774e+00 -1.2055930585e-04 2.2945338602e+00 -3.9742492255e+00 2.2945338602e+00 3.9742492255e+00 
29900 4.5513924298e+00 -1.3625556129e-04 2.2945364873e+00 -3.9742537758e+00 2.2945364873e+00 3.9742537758e+00 
30000 4.5513941450e+00 -1.5380236201e-04 2.2945394564e+00 -3.9742589185e+00 2.2945394564e+00 3.9742589185e+00 
30100 4.5513958105e+00 -1.7305143269e-04 2.2945428079e+00 -3.9742647234e+00 2.2945428079e+00 3.9742647234e+00 
30200 4.5513974147e+00 -1.9385586578e-04 2.2945465788e+00 -3.9742712549e+00 2.2945465788e+00 3.9742712549e+00 
30300 4.5513989476e+00 -2.1607038553e-04 2.2945508031e+00 -3.9742785716e+00 2.2945508031e+00 3.9742785716e+00 
30400 4.5514003999e+00 -2.3955160185e-04 2.2945555115e+00 -3.9742867266e+00 2.2945555115e+00 3.9742867266e+00 
30500 4.5514017641e+00 -2.6415825383e-04 2.2945607315e+00 -3.9742957679e+00 2.2945607315e+00 3.9742957679e+00 
30600 4.5514030334e+00 -2.8975144284e-04 2.2945664877e+00 -3.9743057380e+00 2.2945664877e+00 3.9743057380e+00 
30700 4.5514042027e+00 -3.1619485495e-04 2.2945728015e+00 -3.9743166739e+00 2.2945728015e+00 3.9743166739e+00 
30800 4.5514052677e+00 -3.4335497272e-04 2.2945796916e+00 -3.9743286078e+00 2.2945796916e+00 3.9743286078e+00 
30900 4.5514062255e+00 -3.7110127605e-04 2.2945871735e+00 -3.9743415668e+00 2.2945871735e+00 3.9743415668e+00 
31000 4.5514070744e+00 -3.9930643211e-04 2.2945952599e+00 -3.9743555730e+00 2.2945952599e+00 3.9743555730e+00 
31100 4.5514078137e+00 -4.2784647420e-04 2.2946039609e+00 -3.9743706436e+00 2.2946039609e+00 3.9743706436e+00 
31200 4.5514084436e+00 -4.5660096951e-04 2.2946132838e+00 -3.9743867913e+00 2.2946132838e+00 3.9743867913e+00 
31300 4.5514089655e+00 -4.8545317563e-04 2.2946232332e+00 -3.9744040242e+00 2.2946232332e+00 3.9744040242e+00 
31400 4.5514093817e+00 -5.1429018585e-04 2.2946338113e+00 -3.9744223459e+00 2.2946338113e+00 3.9744223459e+00 
31500 4.5514096951e+00 -5.4300306307e-04 2.2946450177e+00 -3.9744417560e+00 2.2946450177e+00 3.9744417560e+00 
31600 4.5514099098e+00 -5.7148696249e-04 2.2946568497e+00 -3.9744622495e+00 2.2946568497e+00 3.9744622495e+00 
31700 4.5514100301e+00 -5.9964124287e-04 2.2946693022e+00 -3.9744838180e+00 2.2946693022e+00 3.9744838180e+00 
31800 4.5514100612e+00 -6.2736956651e-04 2.2946823682e+00 -3.9745064490e+00 2.2946823682e+00 3.9745064490e+00 
31900 4.5514100088e+00 -6.5457998786e-04 2.2946960383e+00 -3.9745301262e+00 2.2946960383e+00 3.9745301262e+00 
32000 4.5514098790e+00 -6.8118503086e-04 2.2947103012e+00 -3.9745548303e+00 2.2947103012e+00 3.9745548303e+00 
32100 4.5514096782e+00 -7.0710175511e-04 2.2947251437e+00 -3.9745805383e+00 2.2947251437e+00 3.9745805383e+00 
32200 4.5514094131e+00 -7.3225181082e-04 2.2947405508e+00 -3.9746072242e+00 2.2947405508e+00 3.9746072242e+00 
32300 4.5514090907e+00 -7.5656148274e-04 2.2947565059e+00 -3.9746348592e+00 2.2947565059e+00 3.9746348592e+00 
32400 4.5514087182e+00 -7.7996172313e-04 2.2947729905e+00 -3.9746634113e+00 2.2947729905e+00 3.9746634113e+00 
32500 4.5514083025e+00 -8.0238817394e-04 2.2947899848e+00 -3.9746928463e+00 2.2947899848e+00 3.9746928463e+00 
32600 4.5514078508e+00 -8.2378117832e-04 2.2948074676e+00 -3.9747231275e+00 2.2948074676e+00 3.9747231275e+00 
32700 4.5514073702e+00 -8.4408578163e-04 2.2948254165e+00 -3.9747542158e+00 2.2948254165e+00 3.9747542158e+00 
32800 4.5514068675e+00 -8.6325172221e-04 2.2948438076e+00 -3.9747860701e+00 2.2948438076e+00 3.9747860701e+00 
32900 4.5514063494e+00 -8.8123341194e-04 2.2948626161e+00 -3.9748186475e+00 2.2948626161e+00 3.9748186475e+00 
33000 4.5514058225e+00 -8.9798990716e-04 2.2948818162e+00 -3.9748519031e+00 2.2948818162e+00 3.9748519031e+00 
33100 4.5514052927e+00 -9.1348486971e-04 2.2949013813e+00 -3.9748857908e+00 2.2949013813e+00 3.9748857908e+00 
33200 4.5514047661e+00 -9.2768651894e-04 2.2949212838e+00 -3.9749202630e+00 2.2949212838e+00 3.9749202630e+00 
33300 4.5514042479e+00 -9.4056757440e-04 2.2949414956e+00 -3.9749552708e+00 2.2949414956e+00 3.9749552708e+00 
33400 4.5514037434e+00 -9.5210518998e-04 2.2949619878e+00 -3.9749907644e+00 2.2949619878e+00 3.9749907644e+00 
33500 4.5514032571e+00 -9.6228087951e-04 2.2949827312e+00 -3.9750266930e+00 2.2949827312e+00 3.9750266930e+00 
33600 4.5514027932e+00 -9.7108043434e-04 2.2950036962e+00 -3.9750630053e+00 2.2950036962e+00 3.9750630053e+00 
33700 4.5514023554e+00 -9.7849383319e-04 2.2950248526e+00 -3.9750996493e+00 2.2950248526e+00 3.9750996493e+00 
33800 4.5514019471e+00 -9.8451514451e-04 2.2950461703e+00 -3.9751365727e+00 2.2950461703e+00 3.9751365727e+00 
33900 4.5514015711e+00 -9.8914242207e-04 2.2950676191e+00 -3.9751737230e+00 2.2950676191e+00 3.9751737230e+00 
34000 4.5514012296e+00 -9.9237759374e-04 2.2950891684e+00 -3.9752110476e+00 2.2950891684e+00 3.9752110476e+00 
34100 4.5514009247e+00 -9.9422634415e-04 2.2951107880e+00 -3.9752484939e+00 2.2951107880e+00 3.9752484939e+00 
34200 4.5514006576e+00 -9.9469799161e-04 2.2951324477e+00 -3.9752860096e+00 2.2951324477e+00 3.9752860096e+00 
34300 4.5514004294e+00 -9.9380535960e-04 2.2951541175e+00 -3.9753235427e+00 2.2951541175e+00 3.9753235427e+00 
34400 4.5514002406e+00 -9.9156464330e-04 2.2951757676e+00 -3.9753610418e+00 2.2951757676e+00 3.9753610418e+00 
34500 4.5514000914e+00 -9.8799527167e-04 2.2951973687e+00 -3.9753984560e+00 2.2951973687e+00 3.9753984560e+00 
34600 4.5513999816e+00 -9.8311976536e-04 2.2952188918e+00 -3.9754357351e+00 2.2952188918e+00 3.9754357351e+00 
34700 4.5513999105e+00 -9.7696359111e-04 2.2952403086e+00 -3.9754728300e+00 2.2952403086e+00 3.9754728300e+00 
34800 4.5513998773e+00 -9.6955501282e-04 2.2952615910e+00 -3.9755096922e+00 2.2952615910e+00 3.9755096922e+00 
34900 4.5513998806e+00 -9.6092493989e-04 2.2952827118e+00 -3.9755462746e+00 2.2952827118e+00 3.9755462746e+00 
35000 4.5513999189e+00 -9.5110677330e-04 2.2953036444e+00 -3.9755825310e+00 2.2953036444e+00 3.9755825310e+00 
35100 4.5513999906e+00 -9.4013624977e-04 2.2953243630e+00 -3.9756184166e+00 2.2953243630e+00 3.9756184166e+00 
35200 4.5514000935e+00 -9.2805128437e-04 2.2953448424e+00 -3.9756538879e+00 2.2953448424e+00 3.9756538879e+00 
35300 4.5514002255e+00 -9.1489181227e-04 2.2953650584e+00 -3.9756889030e+00 2.2953650584e+00 3.9756889030e+00 
35400 4.5514003843e+00 -9.0069962977e-04 2.2953849875e+00 -3.9757234213e+00 2.2953849875e+00 3.9757234213e+00 
35500 4.5514005674e+00 -8.8551823517e-04 2.2954046074e+00 -3.9757574039e+00 2.2954046074e+00 3.9757574039e+00 
35600 4.5514007722e+00 -8.6939266981e-04 2.2954238963e+00 -3.9757908133e+00 2.2954238963e+00 3.9757908133e+00 
35700 4.5514009961e+00 -8.5236935985e-04 2.2954428339e+00 -3.9758236141e+00 2.2954428339e+00 3.9758236141e+00 
35800 4.5514012364e+00 -8.3449595883e-04 2.2954614004e+00 -3.9758557724e+00 2.2954614004e+00 3.9758557724e+00 
35900 4.5514014905e+00 -8.1582119183e-04 2.2954795775e+00 -3.9758872561e+00 2.2954795775e+00 3.9758872561e+00 
36000 4.5514017557e+00 -7.9639470115e-04 2.2954973477e+00 -3.9759180349e+00 2.2954973477e+00 3.9759180349e+00 
36100 4.5514020293e+00 -7.7626689419e-04 2.2955146947e+00 -3.9759480807e+00 2.2955146947e+00 3.9759480807e+00 
36200 4.5514023087e+00 -7.5548879372e-04 2.2955316030e+00 -3.9759773668e+00 2.2955316030e+00 3.9759773668e+00 
36300 4.5514025916e+00 -7.3411189082e-04 2.2955480587e+00 -3.9760058688e+00 2.2955480587e+00 3.9760058688e+00 
36400 4.5514028754e+00 -7.1218800086e-04 2.2955640486e+00 -3.9760335642e+00 2.2955640486e+00 3.9760335642e+00 
36500 4.5514031579e+00 -6.8976912287e-04 2.2955795609e+00 -3.9760604323e+00 2.2955795609e+00 3.9760604323e+00 
36600 4.5514034370e+00 -6.6690730235e-04 2.2955945847e+00 -3.9760864544e+00 2.2955945847e+00 3.9760864544e+00 
36700 4.5514037106e+00 -6.4365449804e-04 2.2956091106e+00 -3.9761116138e+00 2.2956091106e+00 3.9761116138e+00 
36800 4.5514039769e+00 -6.2006245269e-04 2.2956231298e+00 -3.9761358959e+00 2.2956231298e+00 3.9761358959e+00 
36900 4.5514042342e+00 -5.9618256811e-04 2.2956366352e+00 -3.9761592878e+00 2.2956366352e+00 3.9761592878e+00 
37000 4.5514044810e+00 -5.7206578474e-04 2.2956496203e+00 -3.9761817788e+00 2.2956496203e+00 3.9761817788e+00 
37100 4.5514047159e+00 -5.4776246587e-04 2.2956620801e+00 -3.9762033597e+00 2.2956620801e+00 3.9762033597e+00 
37200 4.5514049379e+00 -5.2332228666e-04 2.2956740105e+00 -3.9762240238e+00 2.2956740105e+00 3.9762240238e+00 
37300 4.5514051458e+00 -4.9879412816e-04 2.2956854085e+00 -3.9762437657e+00 2.2956854085e+00 3.9762437657e+00 
37400 4.5514053389e+00 -4.7422597641e-04 2.2956962722e+00 -3.9762625823e+00 2.2956962722e+00 3.9762625823e+00 
37500 4.5514055165e+00 -4.4966482677e-04 2.2957066008e+00 -3.9762804719e+00 2.2957066008e+00 3.9762804719e+00 
37600 4.5514056783e+00 -4.2515659356e-04 2.2957163945e+00 -3.9762974350e+00 2.2957163945e+00 3.9762974350e+00 
37700 4.5514058238e+00 -4.0074602497e-04 2.2957256542e+00 -3.9763134734e+00 2.2957256542e+00 3.9763134734e+00 
37800 4.5514059530e+00 -3.7647662357e-04 2.2957343823e+00 -3.9763285909e+00 2.2957343823e+00 3.9763285909e+00 
37900 4.5514060658e+00 -3.5239057215e-04 2.2957425818e+00 -3.9763427928e+00 2.2957425818e+00 3.9763427928e+00 
38000 4.5514061625e+00 -3.2852866508e-04 2.2957502567e+00 -3.9763560861e+00 2.2957502567e+00 3.9763560861e+00 
38100 4.5514062434e+00 -3.0493024527e-04 2.2957574119e+00 -3.9763684792e+00 2.2957574119e+00 3.9763684792e+00 
38200 4.5514063088e+00 -2.8163314648e-04 2.2957640530e+00 -3.9763799820e+00 2.2957640530e+00 3.9763799820e+00 
38300 4.5514063593e+00 -2.5867364122e-04 2.2957701868e+00 -3.9763906060e+00 2.2957701868e+00 3.9763906060e+00 
38400 4.5514063955e+00 -2.3608639402e-04 2.2957758205e+00 -3.9764003639e+00 2.2957758205e+00 3.9764003639e+00 
38500 4.5514064182e+00 -2.1390442014e-04 2.2957809622e+00 -3.9764092697e+00 2.2957809622e+00 3.9764092697e+00 
38600 4.5514064282e+00 -1.9215904954e-04 2.2957856209e+00 -3.9764173387e+00 2.2957856209e+00 3.9764173387e+00 
38700 4.5514064264e+00 -1.7087989621e-04 2.2957898059e+00 -3.9764245874e+00 2.2957898059e+00 3.9764245874e+00 
38800 4.5514064136e+00 -1.5009483254e-04 2.2957935275e+00 -3.9764310334e+00 2.2957935275e+00 3.9764310334e+00 
38900 4.5514063910e+00 -1.2982996886e-04 2.2957967964e+00 -3.9764366953e+00 2.2957967964e+00 3.9764366953e+00 
39000 4.5514063594e+00 -1.1010963788e-04 2.2957996240e+00 -3.9764415927e+00 2.2957996240e+00 3.9764415927e+00 
39100 4.5514063200e+00 -9.0956384001e-05 2.2958020221e+00 -3.9764457463e+00 2.2958020221e+00 3.9764457463e+00 
39200 4.5514062738e+00 -7.2390957375e-05 2.2958040030e+00 -3.9764491774e+00 2.2958040030e+00 3.9764491774e+00 
39300 4.5514062217e+00 -5.4432312493e-05 2.2958055796e+00 -3.9764519081e+00 2.2958055796e+00 3.9764519081e+00 
39400 4.5514061650e+00 -3.7634955535e-05 2.2958055796e+00 -3.9764519081e+00 2.2958055796e+00 3.9764519081e+00 
39500 4.5514061045e+00 -2.1316119552e-05 2.2958055796e+00 -3.9764519081e+00 2.2958055796e+00 3.9764519081e+00 
39600 4.5514060413e+00 -5.4925512815e-06 2.2958055796e+00 -3.9764519081e+00 2.2958055796e+00 3.9764519081e+00 
39700 4.5514059763e+00 9.8205858868e-06 2.2958055796e+00 -3.9764519081e+00 2.2958055796e+00 3.9764519081e+00 
39800 4.5514059105e+00 2.4609689664e-05 2.2958055796e+00 -3.9764519081e+00 2.2958055796e+00 3.9764519081e+00 
39900 4.5514058447e+00 3.8862694674e-05 2.2958055796e+00 -3.9764519081e+00 2.2958055796e+00 3.9764519081e+00 
40000 4.5514057799e+00 5.2569046425e-05 2.2958055796e+00 -3.9764519081e+00 2.2958055796e+00 3.9764519081e+00 
40100 4.5514057167e+00 6.5719673444e-05 2.2958055796e+00 -3.9764519081e+00 2.2958055796e+00 3.9764519081e+00 
40200 4.5514056559e+00 7.8306957709e-05 2.2958055796e+00 -3.9764519081e+00 2.2958055796e+00 3.9764519081e+00 
40300 4.5514055979e+00 8.9551551739e-05 2.2958038741e+00 -3.9764489542e+00 2.2958038741e+00 3.9764489542e+00 
40400 4.5514055435e+00 1.0009591079e-04 2.2958019238e+00 -3.9764455762e+00 2.2958019238e+00 3.9764455762e+00 
40500 4.5514054932e+00 1.0994118322e-04 2.2957997438e+00 -3.9764418003e+00 2.2957997438e+00 3.9764418003e+00 
40600 4.5514054473e+00 1.1908999223e-04 2.2957973494e+00 -3.9764376531e+00 2.2957973494e+00 3.9764376531e+00 
40700 4.5514054062e+00 1.2754638963e-04 2.2957947558e+00 -3.9764331608e+00 2.2957947558e+00 3.9764331608e+00 
40800 4.5514053702e+00 1.3531580767e-04 2.2957919780e+00 -3.9764283494e+00 2.2957919780e+00 3.9764283494e+00 
40900 4.5514053396e+00 1.4240500894e-04 2.2957890309e+00 -3.9764232450e+00 2.2957890309e+00 3.9764232450e+00 
41000 4.5514053146e+00 1.4882203459e-04 2.2957859295e+00 -3.9764178732e+00 2.2957859295e+00 3.9764178732e+00 
41100 4.5514052951e+00 1.5457615106e-04 2.2957826883e+00 -3.9764122592e+00 2.2957826883e+00 3.9764122592e+00 
41200 4.5514052813e+00 1.5967779536e-04 2.2957793218e+00 -3.9764064283e+00 2.2957793218e+00 3.9764064283e+00 
41300 4.5514052731e+00 1.6413851933e-04 2.2957758441e+00 -3.9764004048e+00 2.2957758441e+00 3.9764004048e+00 
41400 4.5514052706e+00 1.6797093273e-04 2.2957722693e+00 -3.9763942131e+00 2.2957722693e+00 3.9763942131e+00 
41500 4.5514052734e+00 1.7118864559e-04 2.2957686111e+00 -3.9763878768e+00 2.2957686111e+00 3.9763878768e+00 
41600 4.5514052815e+00 1.7380620985e-04 2.2957648827e+00 -3.9763814191e+00 2.2957648827e+00 3.9763814191e+00 
41700 4.5514052947e+00 1.7583906044e-04 2.2957610973e+00 -3.9763748626e+00 2.2957610973e+00 3.9763748626e+00 
41800 4.5514053127e+00 1.7730345598e-04 2.2957572677e+00 -3.9763682295e+00 2.2957572677e+00 3.9763682295e+00 
41900 4.5514053353e+00 1.7821641937e-04 2.2957534062e+00 -3.9763615411e+00 2.2957534062e+00 3.9763615411e+00 
42000 4.5514053620e+00 1.7859567810e-04 2.2957495247e+00 -3.9763548183e+00 2.2957495247e+00 3.9763548183e+00 
42100 4.5514053926e+00 1.7845960475e-04 2.2957456350e+00 -3.9763480811e+00 2.2957456350e+00 3.9763480811e+00 
42200 4.5514054268e+00 1.7782715771e-04 2.2957417483e+00 -3.9763413491e+00 2.2957417483e+00 3.9763413491e+00 
42300 4.5514054640e+00 1.7671782208e-04 2.2957378753e+00 -3.9763346409e+00 2.2957378753e+00 3.9763346409e+00 
42400 4.5514055041e+00 1.7515155117e-04 2.2957340265e+00 -3.9763279745e+00 2.2957340265e+00 3.9763279745e+00 
42500 4.5514055465e+00 1.7314870847e-04 2.2957302118e+00 -3.9763213672e+00 2.2957302118e+00 3.9763213672e+00 
42600 4.5514055908e+00 1.7073001034e-04 2.2957264407e+00 -3.9763148355e+00 2.2957264407e+00 3.9763148355e+00 
42700 4.5514056368e+00 1.6791646952e-04 2.2957227222e+00 -3.9763083950e+00 2.2957227222e+00 3.9763083950e+00 
42800 4.5514056840e+00 1.6472933947e-04 2.2957190651e+00 -3.9763020606e+00 2.2957190651e+00 3.9763020606e+00 
42900 4.5514057319e+00 1.6119005983e-04 2.2957154773e+00 -3.9762958464e+00 2.2957154773e+00 3.9762958464e+00 
43000 4.5514057804e+00 1.5732020282e-04 2.2957119666e+00 -3.9762897658e+00 2.2957119666e+00 3.9762897658e+00 
43100 4.5514058289e+00 1.5314142100e-04 2.2957085403e+00 -3.9762838311e+00 2.2957085403e+00 3.9762838311e+00 
43200 4.5514058771e+00 1.4867539616e-04 2.2957052049e+00 -3.9762780540e+00 2.2957052049e+00 3.9762780540e+00 
43300 4.5514059248e+00 1.4394378965e-04 2.2957019668e+00 -3.9762724455e+00 2.2957019668e+00 3.9762724455e+00 
43400 4.5514059717e+00 1.3896819409e-04 2.2956988317e+00 -3.9762670154e+00 2.2956988317e+00 3.9762670154e+00 
43500 4.5514060174e+00 1.3377008658e-04 2.2956958050e+00 -3.9762617729e+00 2.2956958050e+00 3.9762617729e+00 
43600 4.5514060617e+00 1.2837078353e-04 2.2956928915e+00 -3.9762567266e+00 2.2956928915e+00 3.9762567266e+00 
43700 4.5514061044e+00 1.2279139700e-04 2.2956900956e+00 -3.9762518840e+00 2.2956900956e+00 3.9762518840e+00 
43800 4.5514061453e+00 1.1705279283e-04 2.2956874212e+00 -3.9762472518e+00 2.2956874212e+00 3.9762472518e+00 
43900 4.5514061842e+00 1.1117555038e-04 2.2956848718e+00 -3.9762428361e+00 2.2956848718e+00 3.9762428361e+00 
44000 4.5514062210e+00 1.0517992411e-04 2.2956824504e+00 -3.9762386421e+00 2.2956824504e+00 3.9762386421e+00 
44100 4.5514062555e+00 9.9085806932e-05 2.2956801596e+00 -3.9762346743e+00 2.2956801596e+00 3.9762346743e+00 
44200 4.5514062877e+00 9.2912695410e-05 2.2956780015e+00 -3.9762309364e+00 2.2956780015e+00 3.9762309364e+00 
44300 4.5514063174e+00 8.6679656788e-05 2.2956759778e+00 -3.9762274313e+00 2.2956759778e+00 3.9762274313e+00 
44400 4.5514063447e+00 8.0405297958e-05 2.2956740899e+00 -3.9762241614e+00 2.2956740899e+00 3.9762241614e+00 
44500 4.5514063694e+00 7.4107736298e-05 2.2956723387e+00 -3.9762211282e+00 2.2956723387e+00 3.9762211282e+00 
44600 4.5514063917e+00 6.7804572429e-05 2.2956707246e+00 -3.9762183325e+00 2.2956707246e+00 3.9762183325e+00 
44700 4.5514064116e+00 6.2182652300e-05 2.2956707246e+00 -3.9762183325e+00 2.2956707246e+00 3.9762183325e+00 
44800 4.5514064290e+00 5.6539376868e-05 2.2956707246e+00 -3.9762183325e+00 2.2956707246e+00 3.9762183325e+00 
44900 4.5514064440e+00 5.0889886743e-05 2.2956707246e+00 -3.9762183325e+00 2.2956707246e+00 3.9762183325e+00 
45000 4.5514064567e+00 4.5248814139e-05 2.2956707246e+00 -3.9762183325e+00 2.2956707246e+00 3.9762183325e+00 
45100 4.5514064672e+00 3.9630270915e-05 2.2956707246e+00 -3.9762183325e+00 2.2956707246e+00 3.9762183325e+00 
45200 4.5514064756e+00 3.4047837774e-05 2.2956707246e+00 -3.9762183325e+00 2.2956707246e+00 3.9762183325e+00 
45300 4.5514064820e+00 2.8514554536e-05 2.2956707246e+00 -3.9762183325e+00 2.2956707246e+00 3.9762183325e+00 
45400 4.5514064866e+00 2.3042911539e-05 2.2956707246e+00 -3.9762183325e+00 2.2956707246e+00 3.9762183325e+00 
45500 4.5514064895e+00 1.7644842166e-05 2.2956707246e+00 -3.9762183325e+00 2.2956707246e+00 3.9762183325e+00 
45600 4.5514064908e+00 1.2331716467e-05 2.2956707246e+00 -3.9762183325e+00 2.2956707246e+00 3.9762183325e+00 
45700 4.5514064907e+00 7.1143359153e-06 2.2956707246e+00 -3.9762183325e+00 2.2956707246e+00 3.9762183325e+00 
45800 4.5514064893e+00 2.0029292598e-06 2.2956707246e+00 -3.9762183325e+00 2.2956707246e+00 3.9762183325e+00 
45900 4.5514064869e+00 -2.9928505167e-06 2.2956707246e+00 -3.9762183325e+00 2.2956707246e+00 3.9762183325e+00 
46000 4.5514064835e+00 -7.8639281458e-06 2.2956707246e+00 -3.9762183325e+00 2.2956707246e+00 3.9762183325e+00 
46100 4.5514064794e+00 -1.2601806936e-05 2.2956707246e+00 -3.9762183325e+00 2.2956707246e+00 3.9762183325e+00 
46200 4.5514064746e+00 -1.7198568566e-05 2.2956707246e+00 -3.9762183325e+00 2.2956707246e+00 3.9762183325e+00 
46300 4.5514064693e+00 -2.1646871836e-05 2.2956707246e+00 -3.9762183325e+00 2.2956707246e+00 3.9762183325e+00 
46400 4.5514064638e+00 -2.5939950371e-05 2.2956707246e+00 -3.9762183325e+00 2.2956707246e+00 3.9762183325e+00 
46500 4.5514064580e+00 -3.0071609300e-05 2.2956707246e+00 -3.9762183325e+00 2.2956707246e+00 3.9762183325e+00 
46600 4.5514064521e+00 -3.4036220975e-05 2.2956707246e+00 -3.9762183325e+00 2.2956707246e+00 3.9762183325e+00 
46700 4.5514064464e+00 -3.7828719674e-05 2.2956707246e+00 -3.9762183325e+00 2.2956707246e+00 3.9762183325e+00 
46800 4.5514064408e+00 -4.1444595396e-05 2.2956707246e+00 -3.9762183325e+00 2.2956707246e+00 3.9762183325e+00 
46900 4.5514064354e+00 -4.4879886718e-05 2.2956707246e+00 -3.9762183325e+00 2.2956707246e+00 3.9762183325e+00 
47000 4.5514064305e+00 -4.8131172769e-05 2.2956707246e+00 -3.9762183325e+00 2.2956707246e+00 3.9762183325e+00 
47100 4.5514064260e+00 -5.1195564349e-05 2.2956707246e+00 -3.9762183325e+00 2.2956707246e+00 3.9762183325e+00 
47200 4.5514064220e+00 -5.4070694228e-05 2.2956707246e+00 -3.9762183325e+00 2.2956707246e+00 3.9762183325e+00 
47300 4.5514064187e+00 -5.6754706641e-05 2.2956707246e+00 -3.9762183325e+00 2.2956707246e+00 3.9762183325e+00 
47400 4.5514064160e+00 -5.9246246037e-05 2.2956707246e+00 -3.9762183325e+00 2.2956707246e+00 3.9762183325e+00 
47500 4.5514064140e+00 -6.1544445110e-05 2.2956707246e+00 -3.9762183325e+00 2.2956707246e+00 3.9762183325e+00 
47600 4.5514064127e+00 -6.3648912149e-05 2.2956707246e+00 -3.9762183325e+00 2.2956707246e+00 3.9762183325e+00 
47700 4.5514064122e+00 -6.5559717743e-05 2.2956707246e+00 -3.9762183325e+00 2.2956707246e+00 3.9762183325e+00 
47800 4.5514064124e+00 -6.7277380878e-05 2.2956707246e+00 -3.9762183325e+00 2.2956707246e+00 3.9762183325e+00 
47900 4.5514064135e+00 -6.8802854496e-05 2.2956707246e+00 -3.9762183325e+00 2.2956707246e+00 3.9762183325e+00 
48000 4.5514064153e+00 -7.0137510508e-05 2.2956707246e+00 -3.9762183325e+00 2.2956707246e+00 3.9762183325e+00 
48100 4.5514064179e+00 -7.1283124347e-05 2.2956707246e+00 -3.9762183325e+00 2.2956707246e+00 3.9762183325e+00 
48200 4.5514064211e+00 -7.1537778595e-05 2.2956722772e+00 -3.9762210216e+00 2.2956722772e+00 3.9762210216e+00 
48300 4.5514064250e+00 -7.1592079781e-05 2.2956738353e+00 -3.9762237203e+00 2.2956738353e+00 3.9762237203e+00 
48400 4.5514064297e+00 -7.1450688026e-05 2.2956753946e+00 -3.9762264211e+00 2.2956753946e+00 3.9762264211e+00 
48500 4.5514064350e+00 -7.1118645652e-05 2.2956769508e+00 -3.9762291165e+00 2.2956769508e+00 3.9762291165e+00 
48600 4.5514064409e+00 -7.0601351917e-05 2.2956784997e+00 -3.9762317994e+00 2.2956784997e+00 3.9762317994e+00 
48700 4.5514064475e+00 -7.0601869249e-05 2.2956784997e+00 -3.9762317994e+00 2.2956784997e+00 3.9762317994e+00 
48800 4.5514064546e+00 -7.0435386266e-05 2.2956784997e+00 -3.9762317994e+00 2.2956784997e+00 3.9762317994e+00 
48900 4.5514064622e+00 -7.0106534301e-05 2.2956784997e+00 -3.9762317994e+00 2.2956784997e+00 3.9762317994e+00 
49000 4.5514064702e+00 -6.9620176112e-05 2.2956784997e+00 -3.9762317994e+00 2.2956784997e+00 3.9762317994e+00 
49100 4.5514064786e+00 -6.8981388857e-05 2.2956784997e+00 -3.9762317994e+00 2.2956784997e+00 3.9762317994e+00 
49200 4.5514064873e+00 -6.8195447047e-05 2.2956784997e+00 -3.9762317994e+00 2.2956784997e+00 3.9762317994e+00 
49300 4.5514064962e+00 -6.7267805495e-05 2.2956784997e+00 -3.9762317994e+00 2.2956784997e+00 3.9762317994e+00 
49400 4.5514065053e+00 -6.6204082322e-05 2.2956784997e+00 -3.9762317994e+00 2.2956784997e+00 3.9762317994e+00 
49500 4.5514065146e+00 -6.5010042042e-05 2.2956784997e+00 -3.9762317994e+00 2.2956784997e+00 3.9762317994e+00 
49600 4.5514065239e+00 -6.3691578765e-05 2.2956784997e+00 -3.9762317994e+00 2.2956784997e+00 3.9762317994e+00 
49700 4.5514065333e+00 -6.2254699552e-05 2.2956784997e+00 -3.9762317994e+00 2.2956784997e+00 3.9762317994e+00 
49800 4.5514065426e+00 -6.0705507953e-05 2.2956784997e+00 -3.9762317994e+00 2.2956784997e+00 3.9762317994e+00 
49900 4.5514065519e+00 -5.9050187758e-05 2.2956784997e+00 -3.9762317994e+00 2.2956784997e+00 3.9762317994e+00 
50000 4.5514065610e+00 -5.7294987011e-05 2.2956784997e+00 -3.9762317994e+00 2.2956784997e+00 3.9762317994e+00 
50100 4.5514065700e+00 -5.5446202282e-05 2.2956784997e+00 -3.9762317994e+00 2.2956784997e+00 3.9762317994e+00 
50200 4.5514065788e+00 -5.3510163258e-05 2.2956784997e+00 -3.9762317994e+00 2.2956784997e+00 3.9762317994e+00 
50300 4.5514065874e+00 -5.1493217668e-05 2.2956784997e+00 -3.9762317994e+00 2.2956784997e+00 3.9762317994e+00 
50400 4.5514065957e+00 -4.9401716555e-05 2.2956784997e+00 -3.9762317994e+00 2.2956784997e+00 3.9762317994e+00 
50500 4.5514066036e+00 -4.7241999948e-05 2.2956784997e+00 -3.9762317994e+00 2.2956784997e+00 3.9762317994e+00 
50600 4.5514066113e+00 -4.5020382921e-05 2.2956784997e+00 -3.9762317994e+00 2.2956784997e+00 3.9762317994e+00 
50700 4.5514066186e+00 -4.2743142103e-05 2.2956784997e+00 -3.9762317994e+00 2.2956784997e+00 3.9762317994e+00 
50800 4.5514066256e+00 -4.0416502606e-05 2.2956784997e+00 -3.9762317994e+00 2.2956784997e+00 3.9762317994e+00 
50900 4.5514066322e+00 -3.8046625454e-05 2.2956784997e+00 -3.9762317994e+00 2.2956784997e+00 3.9762317994e+00 
51000 4.5514066384e+00 -3.5639595462e-05 2.2956784997e+00 -3.9762317994e+00 2.2956784997e+00 3.9762317994e+00 
51100 4.5514066442e+00 -3.3201409637e-05 2.2956784997e+00 -3.9762317994e+00 2.2956784997e+00 3.9762317994e+00 
51200 4.5514066496e+00 -3.0737966073e-05 2.2956784997e+00 -3.9762317994e+00 2.2956784997e+00 3.9762317994e+00 
51300 4.5514066547e+00 -2.8255053384e-05 2.2956784997e+00 -3.9762317994e+00 2.2956784997e+00 3.9762317994e+00 
51400 4.5514066594e+00 -2.5758340659e-05 2.2956784997e+00 -3.9762317994e+00 2.2956784997e+00 3.9762317994e+00 
51500 4.5514066636e+00 -2.3253367972e-05 2.2956784997e+00 -3.9762317994e+00 2.2956784997e+00 3.9762317994e+00 
51600 4.5514066676e+00 -2.0745537437e-05 2.2956784997e+00 -3.9762317994e+00 2.2956784997e+00 3.9762317994e+00 
51700 4.5514066711e+00 -1.8240104821e-05 2.2956784997e+00 -3.9762317994e+00 2.2956784997e+00 3.9762317994e+00 
51800 4.5514066743e+00 -1.5742171721e-05 2.2956784997e+00 -3.9762317994e+00 2.2956784997e+00 3.9762317994e+00 
51900 4.5514066772e+00 -1.3256678295e-05 2.2956784997e+00 -3.9762317994e+00 2.2956784997e+00 3.9762317994e+00 
52000 4.5514066798e+00 -1.0788396581e-05 2.2956784997e+00 -3.9762317994e+00 2.2956784997e+00 3.9762317994e+00 
52100 4.5514066821e+00 -8.3419243616e-06 2.2956784997e+00 -3.9762317994e+00 2.2956784997e+00 3.9762317994e+00 
52200 4.5514066842e+00 -5.9216796061e-06 2.2956784997e+00 -3.9762317994e+00 2.2956784997e+00 3.9762317994e+00 
52300 4.5514066860e+00 -3.5318954759e-06 2.2956784997e+00 -3.9762317994e+00 2.2956784997e+00 3.9762317994e+00 
52400 4.5514066875e+00 -1.1766158897e-06 2.2956784997e+00 -3.9762317994e+00 2.2956784997e+00 3.9762317994e+00 
52500 4.5514066889e+00 1.1403083715e-06 2.2956784997e+00 -3.9762317994e+00 2.2956784997e+00 3.9762317994e+00 
52600 4.5514066901e+00 3.4152229783e-06 2.2956784997e+00 -3.9762317994e+00 2.2956784997e+00 3.9762317994e+00 
52700 4.5514066911e+00 5.6446728570e-06 2.2956784997e+00 -3.9762317994e+00 2.2956784997e+00 3.9762317994e+00 
52800 4.5514066920e+00 7.8254044402e-06 2.2956784997e+00 -3.9762317994e+00 2.2956784997e+00 3.9762317994e+00 
52900 4.5514066928e+00 9.9543673992e-06 2.2956784997e+00 -3.9762317994e+00 2.2956784997e+00 3.9762317994e+00 
53000 4.5514066935e+00 1.2028715870e-05 2.2956784997e+00 -3.9762317994e+00 2.2956784997e+00 3.9762317994e+00 
53100 4.5514066941e+00 1.4045809153e-05 2.2956784997e+00 -3.9762317994e+00 2.2956784997e+00 3.9762317994e+00 
53200 4.5514066947e+00 1.6003211955e-05 2.2956784997e+00 -3.9762317994e+00 2.2956784997e+00 3.9762317994e+00 
53300 4.5514066953e+00 1.7898694122e-05 2.2956784997e+00 -3.9762317994e+00 2.2956784997e+00 3.9762317994e+00 
53400 4.5514066958e+00 1.9730229926e-05 2.2956784997e+00 -3.9762317994e+00 2.2956784997e+00 3.9762317994e+00 
53500 4.5514066964e+00 2.1495996900e-05 2.2956784997e+00 -3.9762317994e+00 2.2956784997e+00 3.9762317994e+00 
53600 4.5514066969e+00 2.3194374232e-05 2.2956784997e+00 -3.9762317994e+00 2.2956784997e+00 3.9762317994e+00 
53700 4.5514066975e+00 2.4823940738e-05 2.2956784997e+00 -3.9762317994e+00 2.2956784997e+00 3.9762317994e+00 
53800 4.5514066982e+00 2.6383472454e-05 2.2956784997e+00 -3.9762317994e+00 2.2956784997e+00 3.9762317994e+00 
53900 4.5514066989e+00 2.7871939805e-05 2.2956784997e+00 -3.9762317994e+00 2.2956784997e+00 3.9762317994e+00 
54000 4.5514066997e+00 2.9288504436e-05 2.2956784997e+00 -3.9762317994e+00 2.2956784997e+00 3.9762317994e+00 
54100 4.5514067005e+00 3.0632515685e-05 2.2956784997e+00 -3.9762317994e+00 2.2956784997e+00 3.9762317994e+00 
54200 4.5514067014e+00 3.1903506698e-05 2.2956784997e+00 -3.9762317994e+00 2.2956784997e+00 3.9762317994e+00 
54300 4.5514067024e+00 3.3101190279e-05 2.2956784997e+00 -3.9762317994e+00 2.2956784997e+00 3.9762317994e+00 
54400 4.5514067036e+00 3.4225454381e-05 2.2956784997e+00 -3.9762317994e+00 2.2956784997e+00 3.9762317994e+00 
54500 4.5514067048e+00 3.5276357376e-05 2.2956784997e+00 -3.9762317994e+00 2.2956784997e+00 3.9762317994e+00 
54600 4.5514067060e+00 3.6254123023e-05 2.2956784997e+00 -3.9762317994e+00 2.2956784997e+00 3.9762317994e+00 
54700 4.5514067074e+00 3.7159135219e-05 2.2956784997e+00 -3.9762317994e+00 2.2956784997e+00 3.9762317994e+00 
54800 4.5514067089e+00 3.7991932518e-05 2.2956784997e+00 -3.9762317994e+00 2.2956784997e+00 3.9762317994e+00 
54900 4.5514067105e+00 3.8753202453e-05 2.2956784997e+00 -3.9762317994e+00 2.2956784997e+00 3.9762317994e+00 
55000 4.5514067121e+00 3.9443775667e-05 2.2956784997e+00 -3.9762317994e+00 2.2956784997e+00 3.9762317994e+00 
55100 4.5514067139e+00 4.0064619885e-05 2.2956784997e+00 -3.9762317994e+00 2.2956784997e+00 3.9762317994e+00 
55200 4.5514067157e+00 4.0616833734e-05 2.2956784997e+00 -3.9762317994e+00 2.2956784997e+00 3.9762317994e+00 
55300 4.5514067176e+00 4.1101640433e-05 2.2956784997e+00 -3.9762317994e+00 2.2956784997e+00 3.9762317994e+00 
55400 4.5514067195e+00 4.1520381390e-05 2.2956784997e+00 -3.9762317994e+00 2.2956784997e+00 3.9762317994e+00 
55500 4.5514067216e+00 4.1874509669e-05 2.2956784997e+00 -3.9762317994e+00 2.2956784997e+00 3.9762317994e+00 
55600 4.5514067236e+00 4.2165583431e-05 2.2956784997e+00 -3.9762317994e+00 2.2956784997e+00 3.9762317994e+00 
55700 4.5514067257e+00 4.2395259274e-05 2.2956784997e+00 -3.9762317994e+00 2.2956784997e+00 3.9762317994e+00 
55800 4.5514067279e+00 4.2565285560e-05 2.2956784997e+00 -3.9762317994e+00 2.2956784997e+00 3.9762317994e+00 
55900 4.5514067300e+00 4.2677495712e-05 2.2956784997e+00 -3.9762317994e+00 2.2956784997e+00 3.9762317994e+00 
56000 4.5514067322e+00 4.2733801488e-05 2.2956784997e+00 -3.9762317994e+00 2.2956784997e+00 3.9762317994e+00 
56100 4.5514067345e+00 4.2736186294e-05 2.2956784997e+00 -3.9762317994e+00 2.2956784997e+00 3.9762317994e+00 
56200 4.5514067367e+00 4.2686698490e-05 2.2956784997e+00 -3.9762317994e+00 2.2956784997e+00 3.9762317994e+00 
56300 4.5514067389e+00 4.2587444750e-05 2.2956784997e+00 -3.9762317994e+00 2.2956784997e+00 3.9762317994e+00 
56400 4.5514067411e+00 4.2440583481e-05 2.2956784997e+00 -3.9762317994e+00 2.2956784997e+00 3.9762317994e+00 
56500 4.5514067433e+00 4.2248318289e-05 2.2956784997e+00 -3.9762317994e+00 2.2956784997e+00 3.9762317994e+00 
56600 4.5514067454e+00 4.2012891539e-05 2.2956784997e+00 -3.9762317994e+00 2.2956784997e+00 3.9762317994e+00 
56700 4.5514067476e+00 4.1736578007e-05 2.2956784997e+00 -3.9762317994e+00 2.2956784997e+00 3.9762317994e+00 
56800 4.5514067497e+00 4.1421678641e-05 2.2956784997e+00 -3.9762317994e+00 2.2956784997e+00 3.9762317994e+00 
56900 4.5514067517e+00 4.1070514417e-05 2.2956784997e+00 -3.9762317994e+00 2.2956784997e+00 3.9762317994e+00 
57000 4.5514067537e+00 4.0685420356e-05 2.2956784997e+00 -3.9762317994e+00 2.2956784997e+00 3.9762317994e+00 
57100 4.5514067557e+00 4.0268739648e-05 2.2956784997e+00 -3.9762317994e+00 2.2956784997e+00 3.9762317994e+00 
57200 4.5514067576e+00 3.9822817943e-05 2.2956784997e+00 -3.9762317994e+00 2.2956784997e+00 3.9762317994e+00 
57300 4.5514067594e+00 3.9349997797e-05 2.2956784997e+00 -3.9762317994e+00 2.2956784997e+00 3.9762317994e+00 
57400 4.5514067612e+00 3.8852613267e-05 2.2956784997e+00 -3.9762317994e+00 2.2956784997e+00 3.9762317994e+00 
57500 4.5514067629e+00 3.8332984703e-05 2.2956784997e+00 -3.9762317994e+00 2.2956784997e+00 3.9762317994e+00 
57600 4.5514067646e+00 3.7793413709e-05 2.2956784997e+00 -3.9762317994e+00 2.2956784997e+00 3.9762317994e+00 
57700 4.5514067662e+00 3.7236178288e-05 2.2956784997e+00 -3.9762317994e+00 2.2956784997e+00 3.9762317994e+00 
57800 4.5514067677e+00 3.6663528190e-05 2.2956784997e+00 -3.9762317994e+00 2.2956784997e+00 3.9762317994e+00 
57900 4.5514067692e+00 3.6077680453e-05 2.2956784997e+00 -3.9762317994e+00 2.2956784997e+00 3.9762317994e+00 
58000 4.5514067706e+00 3.5480815142e-05 2.2956784997e+00 -3.9762317994e+00 2.2956784997e+00 3.9762317994e+00 
58100 4.5514067719e+00 3.4875071316e-05 2.2956784997e+00 -3.9762317994e+00 2.2956784997e+00 3.9762317994e+00 
58200 4.5514067732e+00 3.4262543187e-05 2.2956784997e+00 -3.9762317994e+00 2.2956784997e+00 3.9762317994e+00 
58300 4.5514067744e+00 3.3645276500e-05 2.2956784997e+00 -3.9762317994e+00 2.2956784997e+00 3.9762317994e+00 
58400 4.5514067756e+00 3.3025265134e-05 2.2956784997e+00 -3.9762317994e+00 2.2956784997e+00 3.9762317994e+00 
58500 4.5514067767e+00 3.2404447916e-05 2.2956784997e+00 -3.9762317994e+00 2.2956784997e+00 3.9762317994e+00 
58600 4.5514067777e+00 3.1784705661e-05 2.2956784997e+00 -3.9762317994e+00 2.2956784997e+00 3.9762317994e+00 
58700 4.5514067787e+00 3.1167858436e-05 2.2956784997e+00 -3.9762317994e+00 2.2956784997e+00 3.9762317994e+00 
58800 4.5514067796e+00 3.0555663030e-05 2.2956784997e+00 -3.9762317994e+00 2.2956784997e+00 3.9762317994e+00 
58900 4.5514067805e+00 2.9949810657e-05 2.2956784997e+00 -3.9762317994e+00 2.2956784997e+00 3.9762317994e+00 
59000 4.5514067814e+00 2.9351924883e-05 2.2956784997e+00 -3.9762317994e+00 2.2956784997e+00 3.9762317994e+00 
59100 4.5514067822e+00 2.8763559768e-05 2.2956784997e+00 -3.9762317994e+00 2.2956784997e+00 3.9762317994e+00 
59200 4.5514067829e+00 2.8186198207e-05 2.2956784997e+00 -3.9762317994e+00 2.2956784997e+00 3.9762317994e+00 
59300 4.5514067837e+00 2.7621250532e-05 2.2956784997e+00 -3.9762317994e+00 2.2956784997e+00 3.9762317994e+00 
59400 4.5514067844e+00 2.7070053257e-05 2.2956784997e+00 -3.9762317994e+00 2.2956784997e+00 3.9762317994e+00 
59500 4.5514067850e+00 2.6533868109e-05 2.2956784997e+00 -3.9762317994e+00 2.2956784997e+00 3.9762317994e+00 
59600 4.5514067857e+00 2.6013881200e-05 2.2956784997e+00 -3.9762317994e+00 2.2956784997e+00 3.9762317994e+00 
59700 4.5514067863e+00 2.5511202443e-05 2.2956784997e+00 -3.9762317994e+00 2.2956784997e+00 3.9762317994e+00 
59800 4.5514067870e+00 2.5026865137e-05 2.2956784997e+00 -3.9762317994e+00 2.2956784997e+00 3.9762317994e+00 
59900 4.5514067876e+00 2.4561825772e-05 2.2956784997e+00 -3.9762317994e+00 2.2956784997e+00 3.9762317994e+00 
60000 4.5514067882e+00 2.4116963989e-05 2.2956784997e+00 -3.9762317994e+00 2.2956784997e+00 3.9762317994e+00 
60100 4.5514067887e+00 2.3693082751e-05 2.2956784997e+00 -3.9762317994e+00 2.2956784997e+00 3.9762317994e+00 
60200 4.5514067893e+00 2.3290908683e-05 2.2956784997e+00 -3.9762317994e+00 2.2956784997e+00 3.9762317994e+00 
60300 4.5514067899e+00 2.2911092564e-05 2.2956784997e+00 -3.9762317994e+00 2.2956784997e+00 3.9762317994e+00 
60400 4.5514067905e+00 2.2554210018e-05 2.2956784997e+00 -3.9762317994e+00 2.2956784997e+00 3.9762317994e+00 
60500 4.5514067910e+00 2.2220762327e-05 2.2956784997e+00 -3.9762317994e+00 2.2956784997e+00 3.9762317994e+00 
60600 4.5514067916e+00 2.1911177436e-05 2.2956784997e+00 -3.9762317994e+00 2.2956784997e+00 3.9762317994e+00 
60700 4.5514067922e+00 2.1625811058e-05 2.2956784997e+00 -3.9762317994e+00 2.2956784997e+00 3.9762317994e+00 
60800 4.5514067927e+00 2.1364947962e-05 2.2956784997e+00 -3.9762317994e+00 2.2956784997e+00 3.9762317994e+00 
60900 4.5514067933e+00 2.1128803358e-05 2.2956784997e+00 -3.9762317994e+00 2.2956784997e+00 3.9762317994e+00 
61000 4.5514067939e+00 2.0917524424e-05 2.2956784997e+00 -3.9762317994e+00 2.2956784997e+00 3.9762317994e+00 
61100 4.5514067945e+00 2.0731191955e-05 2.2956784997e+00 -3.9762317994e+00 2.2956784997e+00 3.9762317994e+00 
61200 4.5514067951e+00 2.0569822103e-05 2.2956784997e+00 -3.9762317994e+00 2.2956784997e+00 3.9762317994e+00 
61300 4.5514067957e+00 2.0433368243e-05 2.2956784997e+00 -3.9762317994e+00 2.2956784997e+00 3.9762317994e+00 
61400 4.5514067963e+00 2.0321722916e-05 2.2956784997e+00 -3.9762317994e+00 2.2956784997e+00 3.9762317994e+00 
61500 4.5514067970e+00 2.0234719867e-05 2.2956784997e+00 -3.9762317994e+00 2.2956784997e+00 3.9762317994e+00 
61600 4.5514067976e+00 2.0172136165e-05 2.2956784997e+00 -3.9762317994e+00 2.2956784997e+00 3.9762317994e+00 
61700 4.5514067982e+00 2.0133694402e-05 2.2956784997e+00 -3.9762317994e+00 2.2956784997e+00 3.9762317994e+00 
61800 4.5514067989e+00 2.0119064940e-05 2.2956784997e+00 -3.9762317994e+00 2.2956784997e+00 3.9762317994e+00 
61900 4.5514067995e+00 2.0127868241e-05 2.2956784997e+00 -3.9762317994e+00 2.2956784997e+00 3.9762317994e+00 
62000 4.5514068002e+00 2.0159677228e-05 2.2956784997e+00 -3.9762317994e+00 2.2956784997e+00 3.9762317994e+00 
62100 4.5514068008e+00 2.0214019700e-05 2.2956784997e+00 -3.9762317994e+00 2.2956784997e+00 3.9762317994e+00 
62200 4.5514068015e+00 2.0290380797e-05 2.2956784997e+00 -3.9762317994e+00 2.2956784997e+00 3.9762317994e+00 
62300 4.5514068021e+00 2.0388205460e-05 2.2956784997e+00 -3.9762317994e+00 2.2956784997e+00 3.9762317994e+00 
62400 4.5514068028e+00 2.0506900950e-05 2.2956784997e+00 -3.9762317994e+00 2.2956784997e+00 3.9762317994e+00 
62500 4.5514068035e+00 2.0645839381e-05 2.2956784997e+00 -3.9762317994e+00 2.2956784997e+00 3.9762317994e+00 
62600 4.5514068041e+00 2.0804360236e-05 2.2956784997e+00 -3.9762317994e+00 2.2956784997e+00 3.9762317994e+00 
62700 4.5514068048e+00 2.0981772919e-05 2.2956784997e+00 -3.9762317994e+00 2.2956784997e+00 3.9762317994e+00 
62800 4.5514068054e+00 2.1177359279e-05 2.2956784997e+00 -3.9762317994e+00 2.2956784997e+00 3.9762317994e+00 
62900 4.5514068061e+00 2.1390376161e-05 2.2956784997e+00 -3.9762317994e+00 2.2956784997e+00 3.9762317994e+00 
63000 4.5514068067e+00 2.1620057895e-05 2.2956784997e+00 -3.9762317994e+00 2.2956784997e+00 3.9762317994e+00 
63100 4.5514068074e+00 2.1865618819e-05 2.2956784997e+00 -3.9762317994e+00 2.2956784997e+00 3.9762317994e+00 
63200 4.5514068080e+00 2.2126255729e-05 2.2956784997e+00 -3.9762317994e+00 2.2956784997e+00 3.9762317994e+00 
63300 4.5514068086e+00 2.2401150339e-05 2.2956784997e+00 -3.9762317994e+00 2.2956784997e+00 3.9762317994e+00 
63400 4.5514068092e+00 2.2689471677e-05 2.2956784997e+00 -3.9762317994e+00 2.2956784997e+00 3.9762317994e+00 
63500 4.5514068098e+00 2.2990378458e-05 2.2956784997e+00 -3.9762317994e+00 2.2956784997e+00 3.9762317994e+00 
63600 4.5514068104e+00 2.3303021405e-05 2.2956784997e+00 -3.9762317994e+00 2.2956784997e+00 3.9762317994e+00 
63700 4.5514068110e+00 2.3626545535e-05 2.2956784997e+00 -3.9762317994e+00 2.2956784997e+00 3.9762317994e+00 
63800 4.5514068116e+00 2.3960092370e-05 2.2956784997e+00 -3.9762317994e+00 2.2956784997e+00 3.9762317994e+00 
63900 4.5514068122e+00 2.4302802108e-05 2.2956784997e+00 -3.9762317994e+00 2.2956784997e+00 3.9762317994e+00 
64000 4.5514068127e+00 2.4653815746e-05 2.2956784997e+00 -3.9762317994e+00 2.2956784997e+00 3.9762317994e+00 
64100 4.5514068132e+00 2.5012277105e-05 2.2956784997e+00 -3.9762317994e+00 2.2956784997e+00 3.9762317994e+00 
64200 4.5514068138e+00 2.5377334820e-05 2.2956784997e+00 -3.9762317994e+00 2.2956784997e+00 3.9762317994e+00 
64300 4.5514068143e+00 2.5748144249e-05 2.2956784997e+00 -3.9762317994e+00 2.2956784997e+00 3.9762317994e+00 
64400 4.5514068148e+00 2.6123869316e-05 2.2956784997e+00 -3.9762317994e+00 2.2956784997e+00 3.9762317994e+00 
64500 4.5514068153e+00 2.6503684269e-05 2.2956784997e+00 -3.9762317994e+00 2.2956784997e+00 3.9762317994e+00 
64600 4.5514068157e+00 2.6886775379e-05 2.2956784997e+00 -3.9762317994e+00 2.2956784997e+00 3.9762317994e+00 
64700 4.5514068162e+00 2.7272342549e-05 2.2956784997e+00 -3.9762317994e+00 2.2956784997e+00 3.9762317994e+00 
64800 4.5514068166e+00 2.7659600840e-05 2.2956784997e+00 -3.9762317994e+00 2.2956784997e+00 3.9762317994e+00 
64900 4.5514068171e+00 2.8047781937e-05 2.2956784997e+00 -3.9762317994e+00 2.2956784997e+00 3.9762317994e+00 
65000 4.5514068175e+00 2.8436135512e-05 2.2956784997e+00 -3.9762317994e+00 2.2956784997e+00 3.9762317994e+00 
65100 4.5514068179e+00 2.8823930513e-05 2.2956784997e+00 -3.9762317994e+00 2.2956784997e+00 3.9762317994e+00 
65200 4.5514068183e+00 2.9210456371e-05 2.2956784997e+00 -3.9762317994e+00 2.2956784997e+00 3.9762317994e+00 
65300 4.5514068187e+00 2.9595024126e-05 2.2956784997e+00 -3.9762317994e+00 2.2956784997e+00 3.9762317994e+00 
65400 4.5514068191e+00 2.9976967448e-05 2.2956784997e+00 -3.9762317994e+00 2.2956784997e+00 3.9762317994e+00 
65500 4.5514068194e+00 3.0355643615e-05 2.2956784997e+00 -3.9762317994e+00 2.2956784997e+00 3.9762317994e+00 
65600 4.5514068198e+00 3.0730434363e-05 2.2956784997e+00 -3.9762317994e+00 2.2956784997e+00 3.9762317994e+00 
65700 4.5514068201e+00 3.1100746678e-05 2.2956784997e+00 -3.9762317994e+00 2.2956784997e+00 3.9762317994e+00 
65800 4.5514068205e+00 3.1466013504e-05 2.2956784997e+00 -3.9762317994e+00 2.2956784997e+00 3.9762317994e+00 
65900 4.5514068208e+00 3.1825694356e-05 2.2956784997e+00 -3.9762317994e+00 2.2956784997e+00 3.9762317994e+00 
66000 4.5514068211e+00 3.2179275871e-05 2.2956784997e+00 -3.9762317994e+00 2.2956784997e+00 3.9762317994e+00 
66100 4.5514068214e+00 3.2526272248e-05 2.2956784997e+00 -3.9762317994e+00 2.2956784997e+00 3.9762317994e+00 
66200 4.5514068217e+00 3.2866225654e-05 2.2956784997e+00 -3.9762317994e+00 2.2956784997e+00 3.9762317994e+00 
66300 4.5514068220e+00 3.3198706497e-05 2.2956784997e+00 -3.9762317994e+00 2.2956784997e+00 3.9762317994e+00 
66400 4.5514068223e+00 3.3523313677e-05 2.2956784997e+00 -3.9762317994e+00 2.2956784997e+00 3.9762317994e+00 
66500 4.5514068226e+00 3.3839674730e-05 2.2956784997e+00 -3.9762317994e+00 2.2956784997e+00 3.9762317994e+00 
66600 4.5514068229e+00 3.4147445896e-05 2.2956784997e+00 -3.9762317994e+00 2.2956784997e+00 3.9762317994e+00 
66700 4.5514068232e+00 3.4446312147e-05 2.2956784997e+00 -3.9762317994e+00 2.2956784997e+00 3.9762317994e+00 
66800 4.5514068234e+00 3.4735987108e-05 2.2956784997e+00 -3.9762317994e+00 2.2956784997e+00 3.9762317994e+00 
66900 4.5514068237e+00 3.5016212939e-05 2.2956784997e+00 -3.9762317994e+00 2.2956784997e+00 3.9762317994e+00 
67000 4.5514068240e+00 3.5286760149e-05 2.2956784997e+00 -3.9762317994e+00 2.2956784997e+00 3.9762317994e+00 
67100 4.5514068242e+00 3.5547427324e-05 2.2956784997e+00 -3.9762317994e+00 2.2956784997e+00 3.9762317994e+00 
67200 4.5514068245e+00 3.5798040839e-05 2.2956784997e+00 -3.9762317994e+00 2.2956784997e+00 3.9762317994e+00 
67300 4.5514068248e+00 3.6038454460e-05 2.2956784997e+00 -3.9762317994e+00 2.2956784997e+00 3.9762317994e+00 
67400 4.5514068250e+00 3.6268548940e-05 2.2956784997e+00 -3.9762317994e+00 2.2956784997e+00 3.9762317994e+00 
67500 4.5514068253e+00 3.6488231530e-05 2.2956784997e+00 -3.9762317994e+00 2.2956784997e+00 3.9762317994e+00 
67600 4.5514068255e+00 3.6697435454e-05 2.2956784997e+00 -3.9762317994e+00 2.2956784997e+00 3.9762317994e+00 
67700 4.5514068258e+00 3.6896119342e-05 2.2956784997e+00 -3.9762317994e+00 2.2956784997e+00 3.9762317994e+00 
67800 4.5514068260e+00 3.7084266600e-05 2.2956784997e+00 -3.9762317994e+00 2.2956784997e+00 3.9762317994e+00 
67900 4.5514068263e+00 3.7261884761e-05 2.2956784997e+00 -3.9762317994e+00 2.2956784997e+00 3.9762317994e+00 
68000 4.5514068265e+00 3.7429004790e-05 2.2956784997e+00 -3.9762317994e+00 2.2956784997e+00 3.9762317994e+00 
68100 4.5514068268e+00 3.7585680330e-05 2.2956784997e+00 -3.9762317994e+00 2.2956784997e+00 3.9762317994e+00 
68200 4.5514068270e+00 3.7731986966e-05 2.2956784997e+00 -3.9762317994e+00 2.2956784997e+00 3.9762317994e+00 
68300 4.5514068273e+00 3.7868021397e-05 2.2956784997e+00 -3.9762317994e+00 2.2956784997e+00 3.9762317994e+00 
68400 4.5514068275e+00 3.7993900636e-05 2.2956784997e+00 -3.9762317994e+00 2.2956784997e+00 3.9762317994e+00 
68500 4.5514068278e+00 3.8109761148e-05 2.2956784997e+00 -3.9762317994e+00 2.2956784997e+00 3.9762317994e+00 
68600 4.5514068280e+00 3.8215757983e-05 2.2956784997e+00 -3.9762317994e+00 2.2956784997e+00 3.9762317994e+00 
68700 4.5514068283e+00 3.8312063885e-05 2.2956784997e+00 -3.9762317994e+00 2.2956784997e+00 3.9762317994e+00 
68800 4.5514068285e+00 3.8398868388e-05 2.2956784997e+00 -3.9762317994e+00 2.2956784997e+00 3.9762317994e+00 
68900 4.5514068287e+00 3.8476376887e-05 2.2956784997e+00 -3.9762317994e+00 2.2956784997e+00 3.9762317994e+00 
69000 4.5514068290e+00 3.8544809713e-05 2.2956784997e+00 -3.9762317994e+00 2.2956784997e+00 3.9762317994e+00 
69100 4.5514068292e+00 3.8604401189e-05 2.2956784997e+00 -3.9762317994e+00 2.2956784997e+00 3.9762317994e+00 
69200 4.5514068294e+00 3.8655398688e-05 2.2956784997e+00 -3.9762317994e+00 2.2956784997e+00 3.9762317994e+00 
69300 4.5514068297e+00 3.8698061675e-05 2.2956784997e+00 -3.9762317994e+00 2.2956784997e+00 3.9762317994e+00 
69400 4.5514068299e+00 3.8732660751e-05 2.2956784997e+00 -3.9762317994e+00 2.2956784997e+00 3.9762317994e+00 
69500 4.5514068301e+00 3.8759476713e-05 2.2956784997e+00 -3.9762317994e+00 2.2956784997e+00 3.9762317994e+00 
69600 4.5514068303e+00 3.8778799592e-05 2.2956784997e+00 -3.9762317994e+00 2.2956784997e+00 3.9762317994e+00 
69700 4.5514068305e+00 3.8790927720e-05 2.2956784997e+00 -3.9762317994e+00 2.2956784997e+00 3.9762317994e+00 
69800 4.5514068308e+00 3.8796166782e-05 2.2956784997e+00 -3.9762317994e+00 2.2956784997e+00 3.9762317994e+00 
69900 4.5514068310e+00 3.8794828903e-05 2.2956784997e+00 -3.9762317994e+00 2.2956784997e+00 3.9762317994e+00 
70000 4.5514068312e+00 3.8787231717e-05 2.2956784997e+00 -3.9762317994e+00 2.2956784997e+00 3.9762317994e+00 
70100 4.5514068314e+00 3.8773697475e-05 2.2956784997e+00 -3.9762317994e+00 2.2956784997e+00 3.9762317994e+00 
70200 4.5514068316e+00 3.8754552153e-05 2.2956784997e+00 -3.9762317994e+00 2.2956784997e+00 3.9762317994e+00 
70300 4.5514068318e+00 3.8730124571e-05 2.2956784997e+00 -3.9762317994e+00 2.2956784997e+00 3.9762317994e+00 
70400 4.5514068320e+00 3.8700745566e-05 2.2956784997e+00 -3.9762317994e+00 2.2956784997e+00 3.9762317994e+00 
70500 4.5514068322e+00 3.8666747128e-05 2.2956784997e+00 -3.9762317994e+00 2.2956784997e+00 3.9762317994e+00 
70600 4.5514068324e+00 3.8628461603e-05 2.2956784997e+00 -3.9762317994e+00 2.2956784997e+00 3.9762317994e+00 
70700 4.5514068326e+00 3.8586220900e-05 2.2956784997e+00 -3.9762317994e+00 2.2956784997e+00 3.9762317994e+00 
70800 4.5514068328e+00 3.8540355731e-05 2.2956784997e+00 -3.9762317994e+00 2.2956784997e+00 3.9762317994e+00 
70900 4.5514068330e+00 3.8491194854e-05 2.2956784997e+00 -3.9762317994e+00 2.2956784997e+00 3.9762317994e+00 
71000 4.5514068331e+00 3.8439064374e-05 2.2956784997e+00 -3.9762317994e+00 2.2956784997e+00 3.9762317994e+00 
71100 4.5514068333e+00 3.8384287039e-05 2.2956784997e+00 -3.9762317994e+00 2.2956784997e+00 3.9762317994e+00 
71200 4.5514068335e+00 3.8327181591e-05 2.2956784997e+00 -3.9762317994e+00 2.2956784997e+00 3.9762317994e+00 
71300 4.5514068336e+00 3.8268062125e-05 2.2956784997e+00 -3.9762317994e+00 2.2956784997e+00 3.9762317994e+00 
71400 4.5514068338e+00 3.8207237485e-05 2.2956784997e+00 -3.9762317994e+00 2.2956784997e+00 3.9762317994e+00 
71500 4.5514068340e+00 3.8145010698e-05 2.2956784997e+00 -3.9762317994e+00 2.2956784997e+00 3.9762317994e+00 
71600 4.5514068341e+00 3.8081678422e-05 2.2956784997e+00 -3.9762317994e+00 2.2956784997e+00 3.9762317994e+00 
71700 4.5514068343e+00 3.8017530431e-05 2.2956784997e+00 -3.9762317994e+00 2.2956784997e+00 3.9762317994e+00 
71800 4.5514068344e+00 3.7952849144e-05 2.2956784997e+00 -3.9762317994e+00 2.2956784997e+00 3.9762317994e+00 
71900 4.5514068346e+00 3.7887909164e-05 2.2956784997e+00 -3.9762317994e+00 2.2956784997e+00 3.9762317994e+00 
72000 4.5514068347e+00 3.7822976863e-05 2.2956784997e+00 -3.9762317994e+00 2.2956784997e+00 3.9762317994e+00 
72100 4.5514068349e+00 3.7758309991e-05 2.2956784997e+00 -3.9762317994e+00 2.2956784997e+00 3.9762317994e+00 
72200 4.5514068350e+00 3.7694157324e-05 2.2956784997e+00 -3.9762317994e+00 2.2956784997e+00 3.9762317994e+00 
72300 4.5514068352e+00 3.7630758339e-05 2.2956784997e+00 -3.9762317994e+00 2.2956784997e+00 3.9762317994e+00 
72400 4.5514068353e+00 3.7568342913e-05 2.2956784997e+00 -3.9762317994e+00 2.2956784997e+00 3.9762317994e+00 
72500 4.5514068354e+00 3.7507131071e-05 2.2956784997e+00 -3.9762317994e+00 2.2956784997e+00 3.9762317994e+00 
72600 4.5514068356e+00 3.7447332743e-05 2.2956784997e+00 -3.9762317994e+00 2.2956784997e+00 3.9762317994e+00 
72700 4.5514068357e+00 3.7389147580e-05 2.2956784997e+00 -3.9762317994e+00 2.2956784997e+00 3.9762317994e+00 
72800 4.5514068358e+00 3.7332764763e-05 2.2956784997e+00 -3.9762317994e+00 2.2956784997e+00 3.9762317994e+00 
72900 4.5514068360e+00 3.7278362879e-05 2.2956784997e+00 -3.9762317994e+00 2.2956784997e+00 3.9762317994e+00 
73000 4.5514068361e+00 3.7226109804e-05 2.2956784997e+00 -3.9762317994e+00 2.2956784997e+00 3.9762317994e+00 
73100 4.5514068362e+00 3.7176162615e-05 2.2956784997e+00 -3.9762317994e+00 2.2956784997e+00 3.9762317994e+00 
73200 4.5514068363e+00 3.7128667537e-05 2.2956784997e+00 -3.9762317994e+00 2.2956784997e+00 3.9762317994e+00 
73300 4.5514068364e+00 3.7083759920e-05 2.2956784997e+00 -3.9762317994e+00 2.2956784997e+00 3.9762317994e+00 
73400 4.5514068366e+00 3.7041564232e-05 2.2956784997e+00 -3.9762317994e+00 2.2956784997e+00 3.9762317994e+00 
73500 4.5514068367e+00 3.7002194092e-05 2.2956784997e+00 -3.9762317994e+00 2.2956784997e+00 3.9762317994e+00 
73600 4.5514068368e+00 3.6965752303e-05 2.2956784997e+00 -3.9762317994e+00 2.2956784997e+00 3.9762317994e+00 
73700 4.5514068369e+00 3.6932330947e-05 2.2956784997e+00 -3.9762317994e+00 2.2956784997e+00 3.9762317994e+00 
73800 4.5514068370e+00 3.6902011471e-05 2.2956784997e+00 -3.9762317994e+00 2.2956784997e+00 3.9762317994e+00 
73900 4.5514068371e+00 3.6874864802e-05 2.2956784997e+00 -3.9762317994e+00 2.2956784997e+00 3.9762317994e+00 
74000 4.5514068372e+00 3.6850951493e-05 2.2956784997e+00 -3.9762317994e+00 2.2956784997e+00 3.9762317994e+00 
74100 4.5514068373e+00 3.6830321893e-05 2.2956784997e+00 -3.9762317994e+00 2.2956784997e+00 3.9762317994e+00 
74200 4.5514068374e+00 3.6813016314e-05 2.2956784997e+00 -3.9762317994e+00 2.2956784997e+00 3.9762317994e+00 
74300 4.5514068375e+00 3.6799065247e-05 2.2956784997e+00 -3.9762317994e+00 2.2956784997e+00 3.9762317994e+00 
74400 4.5514068376e+00 3.6788489559e-05 2.2956784997e+00 -3.9762317994e+00 2.2956784997e+00 3.9762317994e+00 
74500 4.5514068377e+00 3.6781300741e-05 2.2956784997e+00 -3.9762317994e+00 2.2956784997e+00 3.9762317994e+00 
74600 4.5514068378e+00 3.6777501162e-05 2.2956784997e+00 -3.9762317994e+00 2.2956784997e+00 3.9762317994e+00 
74700 4.5514068379e+00 3.6777084316e-05 2.2956784997e+00 -3.9762317994e+00 2.2956784997e+00 3.9762317994e+00 
74800 4.5514068380e+00 3.6780035117e-05 2.2956784997e+00 -3.9762317994e+00 2.2956784997e+00 3.9762317994e+00 
74900 4.5514068381e+00 3.6786330180e-05 2.2956784997e+00 -3.9762317994e+00 2.2956784997e+00 3.9762317994e+00 
75000 4.5514068382e+00 3.6795938115e-05 2.2956784997e+00 -3.9762317994e+00 2.2956784997e+00 3.9762317994e+00 
75100 4.5514068383e+00 3.6808819857e-05 2.2956784997e+00 -3.9762317994e+00 2.2956784997e+00 3.9762317994e+00 
75200 4.5514068384e+00 3.6824928971e-05 2.2956784997e+00 -3.9762317994e+00 2.2956784997e+00 3.9762317994e+00 
75300 4.5514068385e+00 3.6844211989e-05 2.2956784997e+00 -3.9762317994e+00 2.2956784997e+00 3.9762317994e+00 
75400 4.5514068386e+00 3.6866608744e-05 2.2956784997e+00 -3.9762317994e+00 2.2956784997e+00 3.9762317994e+00 
75500 4.5514068387e+00 3.6892052711e-05 2.2956784997e+00 -3.9762317994e+00 2.2956784997e+00 3.9762317994e+00 
75600 4.5514068388e+00 3.6920471354e-05 2.2956784997e+00 -3.9762317994e+00 2.2956784997e+00 3.9762317994e+00 
75700 4.5514068389e+00 3.6951786482e-05 2.2956784997e+00 -3.9762317994e+00 2.2956784997e+00 3.9762317994e+00 
75800 4.5514068390e+00 3.6985914605e-05 2.2956784997e+00 -3.9762317994e+00 2.2956784997e+00 3.9762317994e+00 
75900 4.5514068391e+00 3.7022767280e-05 2.2956784997e+00 -3.9762317994e+00 2.2956784997e+00 3.9762317994e+00 
76000 4.5514068391e+00 3.7062251486e-05 2.2956784997e+00 -3.9762317994e+00 2.2956784997e+00 3.9762317994e+00 
76100 4.5514068392e+00 3.7104269974e-05 2.2956784997e+00 -3.9762317994e+00 2.2956784997e+00 3.9762317994e+00 
76200 4.5514068393e+00 3.7148721627e-05 2.2956784997e+00 -3.9762317994e+00 2.2956784997e+00 3.9762317994e+00 
76300 4.5514068394e+00 3.7195501820e-05 2.2956784997e+00 -3.9762317994e+00 2.2956784997e+00 3.9762317994e+00 
76400 4.5514068395e+00 3.7244502774e-05 2.2956784997e+00 -3.9762317994e+00 2.2956784997e+00 3.9762317994e+00 
76500 4.5514068396e+00 3.7295613905e-05 2.2956784997e+00 -3.9762317994e+00 2.2956784997e+00 3.9762317994e+00 
76600 4.5514068396e+00 3.7348722189e-05 2.2956784997e+00 -3.9762317994e+00 2.2956784997e+00 3.9762317994e+00 
76700 4.5514068397e+00 3.7403712492e-05 2.2956784997e+00 -3.9762317994e+00 2.2956784997e+00 3.9762317994e+00 
76800 4.5514068398e+00 3.7460467911e-05 2.2956784997e+00 -3.9762317994e+00 2.2956784997e+00 3.9762317994e+00 
76900 4.5514068399e+00 3.7518870119e-05 2.2956784997e+00 -3.9762317994e+00 2.2956784997e+00 3.9762317994e+00 
77000 4.5514068399e+00 3.7578799682e-05 2.2956784997e+00 -3.9762317994e+00 2.2956784997e+00 3.9762317994e+00 
77100 4.5514068400e+00 3.7640136393e-05 2.2956784997e+00 -3.9762317994e+00 2.2956784997e+00 3.9762317994e+00 
77200 4.5514068401e+00 3.7702759570e-05 2.2956784997e+00 -3.9762317994e+00 2.2956784997e+00 3.9762317994e+00 
77300 4.5514068402e+00 3.7766548375e-05 2.2956784997e+00 -3.9762317994e+00 2.2956784997e+00 3.9762317994e+00 
77400 4.5514068402e+00 3.7831382109e-05 2.2956784997e+00 -3.9762317994e+00 2.2956784997e+00 3.9762317994e+00 
77500 4.5514068403e+00 3.7897140502e-05 2.2956784997e+00 -3.9762317994e+00 2.2956784997e+00 3.9762317994e+00 
77600 4.5514068404e+00 3.7963703979e-05 2.2956784997e+00 -3.9762317994e+00 2.2956784997e+00 3.9762317994e+00 
77700 4.5514068404e+00 3.8030953948e-05 2.2956784997e+00 -3.9762317994e+00 2.2956784997e+00 3.9762317994e+00 
77800 4.5514068405e+00 3.8098773053e-05 2.2956784997e+00 -3.9762317994e+00 2.2956784997e+00 3.9762317994e+00 
77900 4.5514068406e+00 3.8167045415e-05 2.2956784997e+00 -3.9762317994e+00 2.2956784997e+00 3.9762317994e+00 
78000 4.5514068406e+00 3.8235656879e-05 2.2956784997e+00 -3.9762317994e+00 2.2956784997e+00 3.9762317994e+00 
78100 4.5514068407e+00 3.8304495242e-05 2.2956784997e+00 -3.9762317994e+00 2.2956784997e+00 3.9762317994e+00 
78200 4.5514068408e+00 3.8373450459e-05 2.2956784997e+00 -3.9762317994e+00 2.2956784997e+00 3.9762317994e+00 
78300 4.5514068408e+00 3.8442414861e-05 2.2956784997e+00 -3.9762317994e+00 2.2956784997e+00 3.9762317994e+00 
78400 4.5514068409e+00 3.8511283334e-05 2.2956784997e+00 -3.9762317994e+00 2.2956784997e+00 3.9762317994e+00 
78500 4.5514068410e+00 3.8579953517e-05 2.2956784997e+00 -3.9762317994e+00 2.2956784997e+00 3.9762317994e+00 
78600 4.5514068410e+00 3.8648325955e-05 2.2956784997e+00 -3.9762317994e+00 2.2956784997e+00 3.9762317994e+00 
78700 4.5514068411e+00 3.8716304262e-05 2.2956784997e+00 -3.9762317994e+00 2.2956784997e+00 3.9762317994e+00 
78800 4.5514068411e+00 3.8783795272e-05 2.2956784997e+00 -3.9762317994e+00 2.2956784997e+00 3.9762317994e+00 
78900 4.5514068412e+00 3.8850709168e-05 2.2956784997e+00 -3.9762317994e+00 2.2956784997e+00 3.9762317994e+00 
79000 4.5514068412e+00 3.8916959608e-05 2.2956784997e+00 -3.9762317994e+00 2.2956784997e+00 3.9762317994e+00 
79100 4.5514068413e+00 3.8982463824e-05 2.2956784997e+00 -3.9762317994e+00 2.2956784997e+00 3.9762317994e+00 
79200 4.5514068414e+00 3.9047142737e-05 2.2956784997e+00 -3.9762317994e+00 2.2956784997e+00 3.9762317994e+00 
79300 4.5514068414e+00 3.9110921031e-05 2.2956784997e+00 -3.9762317994e+00 2.2956784997e+00 3.9762317994e+00 
79400 4.5514068415e+00 3.9173727236e-05 2.2956784997e+00 -3.9762317994e+00 2.2956784997e+00 3.9762317994e+00 
79500 4.5514068415e+00 3.9235493781e-05 2.2956784997e+00 -3.9762317994e+00 2.2956784997e+00 3.9762317994e+00 
79600 4.5514068416e+00 3.9296157062e-05 2.2956784997e+00 -3.9762317994e+00 2.2956784997e+00 3.9762317994e+00 
79700 4.5514068416e+00 3.9355657472e-05 2.2956784997e+00 -3.9762317994e+00 2.2956784997e+00 3.9762317994e+00 
79800 4.5514068417e+00 3.9413939437e-05 2.2956784997e+00 -3.9762317994e+00 2.2956784997e+00 3.9762317994e+00 
79900 4.5514068417e+00 3.9470951436e-05 2.2956784997e+00 -3.9762317994e+00 2.2956784997e+00 3.9762317994e+00 
80000 4.5514068417e+00 3.9484439983e-05 2.2956784997e+00 -3.9762317994e+00 2.2956784997e+00 3.9762317994e+00 
80000 4.5514068417e+00 3.9484439983e-05 2.2956784997e+00 -3.9762317994e+00 2.2956784997e+00 3.9762317994e+00 
