# step Hamiltonian StressXX CellTensor1 CellTensor2 CellTensor3 CellTensor4 
0 6.9003907765e+00 2.5755085395e-01 2.8237630504e+00 -4.8909010719e+00 2.8237630504e+00 4.8909010719e+00 
100 6.9421579416e+00 3.1091478307e-01 2.8237630504e+00 -4.8909010719e+00 2.8237630504e+00 4.8909010719e+00 
200 6.9794868890e+00 3.5937257857e-01 2.8182595158e+00 -4.8813686702e+00 2.8182595158e+00 4.8813686702e+00 
300 7.0137031333e+00 4.0353706013e-01 2.8118861359e+00 -4.8703296525e+00 2.8118861359e+00 4.8703296525e+00 
400 7.0452270112e+00 4.4394988564e-01 2.8047136372e+00 -4.8579065203e+00 2.8047136372e+00 4.8579065203e+00 
500 7.0744038557e+00 4.8110017567e-01 2.7968030167e+00 -4.8442049237e+00 2.7968030167e+00 4.8442049237e+00 
600 7.1015112971e+00 5.1542298475e-01 2.7882065437e+00 -4.8293153957e+00 2.7882065437e+00 4.8293153957e+00 
700 7.1267672131e+00 5.4730007133e-01 2.7789687549e+00 -4.8133150761e+00 2.7789687549e+00 4.8133150761e+00 
800 7.1503376007e+00 5.7706210687e-01 2.7691274118e+00 -4.7962693698e+00 2.7691274118e+00 4.7962693698e+00 
900 7.1723438022e+00 6.0499133038e-01 2.7587144050e+00 -4.7782335131e+00 2.7587144050e+00 4.7782335131e+00 
1000 7.1928686365e+00 6.3132350446e-01 2.7477566025e+00 -4.7592540423e+00 2.7477566025e+00 4.7592540423e+00 
1100 7.2119610430e+00 6.5624774206e-01 2.7362766602e+00 -4.7393701990e+00 2.7362766602e+00 4.7393701990e+00 
1200 7.2296388076e+00 6.7990223324e-01 2.7242938385e+00 -4.7186153431e+00 2.7242938385e+00 4.7186153431e+00 
1300 7.2458888243e+00 7.0236304578e-01 2.7118249045e+00 -4.6970185159e+00 2.7118249045e+00 4.6970185159e+00 
1400 7.2606642314e+00 7.2362211955e-01 2.6988852535e+00 -4.6746063829e+00 2.6988852535e+00 4.6746063829e+00 
1500 7.2738778207e+00 7.4354997468e-01 2.6854904628e+00 -4.6514059248e+00 2.6854904628e+00 4.6514059248e+00 
1600 7.2853918468e+00 7.6184045366e-01 2.6716585792e+00 -4.6274483997e+00 2.6716585792e+00 4.6274483997e+00 
1700 7.2950066602e+00 7.7794347174e-01 2.6574135105e+00 -4.6027752169e+00 2.6574135105e+00 4.6027752169e+00 
1800 7.3024557502e+00 7.9101457217e-01 2.6427897917e+00 -4.5774461930e+00 2.6427897917e+00 4.5774461930e+00 
1900 7.3074230565e+00 7.9995107504e-01 2.6278384746e+00 -4.5515497521e+00 2.6278384746e+00 4.5515497521e+00 
2000 7.3096044473e+00 8.0362071773e-01 2.6126325486e+00 -4.5252123158e+00 2.6126325486e+00 4.5252123158e+00 
2100 7.3088226907e+00 8.0133650323e-01 2.5972682063e+00 -4.4986004941e+00 2.5972682063e+00 4.4986004941e+00 
2200 7.3051575359e+00 7.9339934627e-01 2.5818570426e+00 -4.4719075757e+00 2.5818570426e+00 4.4719075757e+00 
2300 7.2989981509e+00 7.8126388604e-01 2.5665074766e+00 -4.4453213475e+00 2.5665074766e+00 4.4453213475e+00 
2400 7.2909504759e+00 7.6703618064e-01 2.5513022397e+00 -4.4189851046e+00 2.5513022397e+00 4.4189851046e+00 
2500 7.2816525514e+00 7.5263120680e-01 2.5362848404e+00 -4.3929742060e+00 2.5362848404e+00 4.3929742060e+00 
2600 7.2716250875e+00 7.3922366461e-01 2.5214621150e+00 -4.3673004925e+00 2.5214621150e+00 4.3673004925e+00 
2700 7.2612235746e+00 7.2722757088e-01 2.5068177699e+00 -4.3419357428e+00 2.5068177699e+00 4.3419357428e+00 
2800 7.2506647127e+00 7.1657228806e-01 2.4923268447e+00 -4.3168367241e+00 2.4923268447e+00 4.3168367241e+00 
2900 7.2400741280e+00 7.0698740438e-01 2.4779651762e+00 -4.2919615846e+00 2.4779651762e+00 4.2919615846e+00 
3000 7.2295254112e+00 6.9817856523e-01 2.4637134600e+00 -4.2672768880e+00 2.4637134600e+00 4.2672768880e+00 
3100 7.2190643144e+00 6.8990273681e-01 2.4495578878e+00 -4.2427587178e+00 2.4495578878e+00 4.2427587178e+00 
3200 7.2087216967e+00 6.8198550878e-01 2.4354892697e+00 -4.2183911565e+00 2.4354892697e+00 4.2183911565e+00 
3300 7.1985198819e+00 6.7431381734e-01 2.4215017660e+00 -4.1941640893e+00 2.4215017660e+00 4.1941640893e+00 
3400 7.1884756250e+00 6.6682189531e-01 2.4075917230e+00 -4.1700711881e+00 2.4075917230e+00 4.1700711881e+00 
3500 7.1786014584e+00 6.5947782285e-01 2.3937567580e+00 -4.1461083258e+00 2.3937567580e+00 4.1461083258e+00 
3600 7.1689062932e+00 6.5227286663e-01 2.3799950910e+00 -4.1222724194e+00 2.3799950910e+00 4.1222724194e+00 
3700 7.1593956912e+00 6.4521369805e-01 2.3663050772e+00 -4.0985606199e+00 2.3663050772e+00 4.0985606199e+00 
3800 7.1500719908e+00 6.3831693218e-01 2.3526848860e+00 -4.0749697568e+00 2.3526848860e+00 4.0749697568e+00 
3900 7.1409343696e+00 6.3160535395e-01 2.3391322860e+00 -4.0514959649e+00 2.3391322860e+00 4.0514959649e+00 
4000 7.1319788801e+00 6.2510530387e-01 2.3256445013e+00 -4.0281344366e+00 2.3256445013e+00 4.0281344366e+00 
4100 7.1231984713e+00 6.1884483088e-01 2.3122181210e+00 -4.0048792638e+00 2.3122181210e+00 4.0048792638e+00 
4200 7.1145830036e+00 6.1285233441e-01 2.2988490444e+00 -3.9817233438e+00 2.2988490444e+00 3.9817233438e+00 
4300 7.1061192597e+00 6.0715550311e-01 2.2855324539e+00 -3.9586583325e+00 2.2855324539e+00 3.9586583325e+00 
4400 7.0977909526e+00 6.0178041669e-01 2.2722628113e+00 -3.9356746373e+00 2.2722628113e+00 3.9356746373e+00 
4500 7.0895787333e+00 5.9675071758e-01 2.2590338727e+00 -3.9127614436e+00 2.2590338727e+00 3.9127614436e+00 
4600 7.0814602017e+00 5.9208678598e-01 2.2458387234e+00 -3.8899067745e+00 2.2458387234e+00 3.8899067745e+00 
4700 7.0734099266e+00 5.8780487022e-01 2.2326698312e+00 -3.8670975841e+00 2.2326698312e+00 3.8670975841e+00 
4800 7.0653994810e+00 5.8391613901e-01 2.2195191219e+00 -3.8443198876e+00 2.2195191219e+00 3.8443198876e+00 
4900 7.0573975055e+00 5.8042563426e-01 2.2063780787e+00 -3.8215589331e+00 2.2063780787e+00 3.8215589331e+00 
5000 7.0493698134e+00 5.7733111721e-01 2.1932378676e+00 -3.7987994198e+00 2.1932378676e+00 3.7987994198e+00 
5100 7.0412795563e+00 5.7462181707e-01 2.1800894943e+00 -3.7760257692e+00 2.1800894943e+00 3.7760257692e+00 
5200 7.0330874744e+00 5.7227711319e-01 2.1669239945e+00 -3.7532224546e+00 2.1669239945e+00 3.7532224546e+00 
5300 7.0247522594e+00 5.7026520981e-01 2.1537326613e+00 -3.7303743954e+00 2.1537326613e+00 3.7303743954e+00 
5400 7.0162310620e+00 5.6854189737e-01 2.1405073114e+00 -3.7074674174e+00 2.1405073114e+00 3.7074674174e+00 
5500 7.0074801763e+00 5.6704953438e-01 2.1272405892e+00 -3.6844887804e+00 2.1272405892e+00 3.6844887804e+00 
5600 6.9984559347e+00 5.6571642535e-01 2.1139263063e+00 -3.6614277660e+00 2.1139263063e+00 3.6614277660e+00 
5700 6.9891158352e+00 5.6445680561e-01 2.1005598088e+00 -3.6382763131e+00 2.1005598088e+00 3.6382763131e+00 
5800 6.9794199098e+00 5.6317165999e-01 2.0871383582e+00 -3.6150296789e+00 2.0871383582e+00 3.6150296789e+00 
5900 6.9693323194e+00 5.6175058505e-01 2.0736615090e+00 -3.5916870912e+00 2.0736615090e+00 3.5916870912e+00 
6000 6.9588231220e+00 5.6007483682e-01 2.0601314555e+00 -3.5682523513e+00 2.0601314555e+00 3.5682523513e+00 
6100 6.9478701252e+00 5.5802157728e-01 2.0465533212e+00 -3.5447343328e+00 2.0465533212e+00 3.5447343328e+00 
6200 6.9364606868e+00 5.5546914672e-01 2.0329353551e+00 -3.5211473235e+00 2.0329353551e+00 3.5211473235e+00 
6300 6.9245932968e+00 5.5230296973e-01 2.0192890088e+00 -3.4975111584e+00 2.0192890088e+00 3.4975111584e+00 
6400 6.9122787575e+00 5.4842149875e-01 2.0056288714e+00 -3.4738511064e+00 2.0056288714e+00 3.4738511064e+00 
6500 6.8995407985e+00 5.4374147629e-01 1.9919724530e+00 -3.4501974958e+00 1.9919724530e+00 3.4501974958e+00 
6600 6.8864160116e+00 5.3820181346e-01 1.9783398279e+00 -3.4265850965e+00 1.9783398279e+00 3.4265850965e+00 
6700 6.8729530768e+00 5.3176556588e-01 1.9647531632e+00 -3.4030523029e+00 1.9647531632e+00 3.4030523029e+00 
6800 6.8592113439e+00 5.2441980947e-01 1.9512361753e+00 -3.3796401931e+00 1.9512361753e+00 3.3796401931e+00 
6900 6.8452589219e+00 5.1617359595e-01 1.9378135640e+00 -3.3563915485e+00 1.9378135640e+00 3.3563915485e+00 
7000 6.8311704841e+00 5.0705449348e-01 1.9245104722e+00 -3.3333499176e+00 1.9245104722e+00 3.3333499176e+00 
7100 6.8170250091e+00 4.9710440026e-01 1.9113520084e+00 -3.3105587896e+00 1.9113520084e+00 3.3105587896e+00 
7200 6.8029036462e+00 4.8637532173e-01 1.8983628557e+00 -3.2880609172e+00 1.8983628557e+00 3.2880609172e+00 
7300 6.7888878356e+00 4.7492565202e-01 1.8855669725e+00 -3.2658977974e+00 1.8855669725e+00 3.2658977974e+00 
7400 6.7750577462e+00 4.6281726889e-01 1.8729873762e+00 -3.2441092974e+00 1.8729873762e+00 3.2441092974e+00 
7500 6.7614910333e+00 4.5011351741e-01 1.8606459938e+00 -3.2227333961e+00 1.8606459938e+00 3.2227333961e+00 
7600 6.7482618790e+00 4.3687798086e-01 1.8485635598e+00 -3.2018060066e+00 1.8485635598e+00 3.2018060066e+00 
7700 6.7354402606e+00 4.2317384094e-01 1.8367595421e+00 -3.1813608482e+00 1.8367595421e+00 3.1813608482e+00 
7800 6.7230913892e+00 4.0906360687e-01 1.8252520827e+00 -3.1614293439e+00 1.8252520827e+00 3.1614293439e+00 
7900 6.7112752719e+00 3.9460902160e-01 1.8140579450e+00 -3.1420405285e+00 1.8140579450e+00 3.1420405285e+00 
8000 6.7000463653e+00 3.7987100557e-01 1.8031924617e+00 -3.1232209596e+00 1.8031924617e+00 3.1232209596e+00 
8100 6.6894533000e+00 3.6490955453e-01 1.7926694863e+00 -3.1049946315e+00 1.7926694863e+00 3.1049946315e+00 
8200 6.6795386684e+00 3.4978355455e-01 1.7825013462e+00 -3.0873828962e+00 1.7825013462e+00 3.0873828962e+00 
8300 6.6703388729e+00 3.3455051060e-01 1.7726988042e+00 -3.0704043953e+00 1.7726988042e+00 3.0704043953e+00 
8400 6.6618840366e+00 3.1926620517e-01 1.7632710289e+00 -3.0540750096e+00 1.7632710289e+00 3.0540750096e+00 
8500 6.6541979778e+00 3.0398431309e-01 1.7542255791e+00 -3.0384078310e+00 1.7542255791e+00 3.0384078310e+00 
8600 6.6472982494e+00 2.8875600104e-01 1.7455684019e+00 -3.0234131601e+00 1.7455684019e+00 3.0234131601e+00 
8700 6.6411962433e+00 2.7362953846e-01 1.7373038481e+00 -3.0090985331e+00 1.7373038481e+00 3.0090985331e+00 
8800 6.6358973554e+00 2.5864994232e-01 1.7294347044e+00 -2.9954687764e+00 1.7294347044e+00 2.9954687764e+00 
8900 6.6314012079e+00 2.4385867295e-01 1.7219622414e+00 -2.9825260908e+00 1.7219622414e+00 2.9825260908e+00 
9000 6.6277019213e+00 2.2929339322e-01 1.7148862774e+00 -2.9702701617e+00 1.7148862774e+00 2.9702701617e+00 
9100 6.6247884297e+00 2.1498779786e-01 1.7082052563e+00 -2.9586982936e+00 1.7082052563e+00 2.9586982936e+00 
9200 6.6226448309e+00 2.0097151593e-01 1.7019163366e+00 -2.9478055653e+00 1.7019163366e+00 2.9478055653e+00 
9300 6.6212507627e+00 1.8727008540e-01 1.6960154910e+00 -2.9375850009e+00 1.6960154910e+00 2.9375850009e+00 
9400 6.6205817994e+00 1.7390499591e-01 1.6904976124e+00 -2.9280277547e+00 1.6904976124e+00 2.9280277547e+00 
9500 6.6206098584e+00 1.6089379379e-01 1.6853566250e+00 -2.9191233034e+00 1.6853566250e+00 2.9191233034e+00 
9600 6.6213036133e+00 1.4825024132e-01 1.6805855983e+00 -2.9108596427e+00 1.6805855983e+00 2.9108596427e+00 
9700 6.6226289051e+00 1.3598452190e-01 1.6761768605e+00 -2.9032234849e+00 1.6761768605e+00 2.9032234849e+00 
9800 6.6245491489e+00 1.2410348172e-01 1.6721221111e+00 -2.8962004529e+00 1.6721221111e+00 2.8962004529e+00 
9900 6.6270257304e+00 1.1261089911e-01 1.6684125293e+00 -2.8897752688e+00 1.6684125293e+00 2.8897752688e+00 
10000 6.6300183902e+00 1.0150777255e-01 1.6650388775e+00 -2.8839319325e+00 1.6650388775e+00 2.8839319325e+00 
10100 6.6334855929e+00 9.0792619425e-02 1.6619915990e+00 -2.8786538913e+00 1.6619915990e+00 2.8786538913e+00 
10200 6.6373848795e+00 8.0461778177e-02 1.6592609080e+00 -2.8739241957e+00 1.6592609080e+00 2.8739241957e+00 
10300 6.6416732015e+00 7.0509707516e-02 1.6568368723e+00 -2.8697256428e+00 1.6568368723e+00 2.8697256428e+00 
10400 6.6463072362e+00 6.0929277326e-02 1.6547094874e+00 -2.8660409040e+00 1.6547094874e+00 2.8660409040e+00 
10500 6.6512436827e+00 5.1712046950e-02 1.6528687424e+00 -2.8628526400e+00 1.6528687424e+00 2.8628526400e+00 
10600 6.6564395378e+00 4.2848527456e-02 1.6513046774e+00 -2.8601436000e+00 1.6513046774e+00 2.8601436000e+00 
10700 6.6618523526e+00 3.4328425391e-02 1.6500074331e+00 -2.8578967070e+00 1.6500074331e+00 2.8578967070e+00 
10800 6.6674404689e+00 2.6140866351e-02 1.6489672918e+00 -2.8560951294e+00 1.6489672918e+00 2.8560951294e+00 
10900 6.6731632364e+00 1.8274597384e-02 1.6481747118e+00 -2.8547223406e+00 1.6481747118e+00 2.8547223406e+00 
11000 6.6789812102e+00 1.0718167872e-02 1.6476203539e+00 -2.8537621646e+00 1.6476203539e+00 2.8537621646e+00 
11100 6.6848563295e+00 3.4600890044e-03 1.6472951026e+00 -2.8531988127e+00 1.6472951026e+00 2.8531988127e+00 
11200 6.6907520770e+00 -3.5110275971e-03 1.6471900803e+00 -2.8530169088e+00 1.6471900803e+00 2.8530169088e+00 
11300 6.6966336205e+00 -1.0206351265e-02 1.6472966577e+00 -2.8532015063e+00 1.6472966577e+00 2.8532015063e+00 
11400 6.7024679352e+00 -1.6636732597e-02 1.6476064584e+00 -2.8537380968e+00 1.6476064584e+00 2.8537380968e+00 
11500 6.7082239094e+00 -2.2812621442e-02 1.6481113600e+00 -2.8546126120e+00 1.6481113600e+00 2.8546126120e+00 
11600 6.7138724321e+00 -2.8744001223e-02 1.6488034921e+00 -2.8558114200e+00 1.6488034921e+00 2.8558114200e+00 
11700 6.7193864638e+00 -3.4440338182e-02 1.6496752313e+00 -2.8573213166e+00 1.6496752313e+00 2.8573213166e+00 
11800 6.7247410910e+00 -3.9910544152e-02 1.6507191934e+00 -2.8591295120e+00 1.6507191934e+00 2.8591295120e+00 
11900 6.7299135647e+00 -4.5162951450e-02 1.6519282243e+00 -2.8612236150e+00 1.6519282243e+00 2.8612236150e+00 
12000 6.7348833238e+00 -5.0205298541e-02 1.6532953895e+00 -2.8635916146e+00 1.6532953895e+00 2.8635916146e+00 
12100 6.7396320038e+00 -5.5044725192e-02 1.6548139620e+00 -2.8662218592e+00 1.6548139620e+00 2.8662218592e+00 
12200 6.7441434316e+00 -5.9687775883e-02 1.6564774099e+00 -2.8691030355e+00 1.6564774099e+00 2.8691030355e+00 
12300 6.7484036076e+00 -6.4140410351e-02 1.6582793838e+00 -2.8722241460e+00 1.6582793838e+00 2.8722241460e+00 
12400 6.7524006747e+00 -6.8408020188e-02 1.6602137040e+00 -2.8755744867e+00 1.6602137040e+00 2.8755744867e+00 
12500 6.7561248765e+00 -7.2495450543e-02 1.6622743468e+00 -2.8791436248e+00 1.6622743468e+00 2.8791436248e+00 
12600 6.7595685050e+00 -7.6407026018e-02 1.6644554332e+00 -2.8829213773e+00 1.6644554332e+00 2.8829213773e+00 
12700 6.7627258380e+00 -8.0146579945e-02 1.6667512160e+00 -2.8868977897e+00 1.6667512160e+00 2.8868977897e+00 
12800 6.7655930682e+00 -8.3717486327e-02 1.6691560687e+00 -2.8910631167e+00 1.6691560687e+00 2.8910631167e+00 
12900 6.7681682249e+00 -8.7122693753e-02 1.6716644745e+00 -2.8954078031e+00 1.6716644745e+00 2.8954078031e+00 
13000 6.7704510878e+00 -9.0364760704e-02 1.6742710171e+00 -2.8999224673e+00 1.6742710171e+00 2.8999224673e+00 
13100 6.7724430963e+00 -9.3445891716e-02 1.6769703710e+00 -2.9045978853e+00 1.6769703710e+00 2.9045978853e+00 
13200 6.7741472525e+00 -9.6367973915e-02 1.6797572933e+00 -2.9094249764e+00 1.6797572933e+00 2.9094249764e+00 
13300 6.7755680212e+00 -9.9132613502e-02 1.6826266172e+00 -2.9143947912e+00 1.6826266172e+00 2.9143947912e+00 
13400 6.7767112261e+00 -1.0174117183e-01 1.6855732450e+00 -2.9194985003e+00 1.6855732450e+00 2.9194985003e+00 
13500 6.7775839444e+00 -1.0419480071e-01 1.6885921432e+00 -2.9247273852e+00 1.6885921432e+00 2.9247273852e+00 
13600 6.7781943993e+00 -1.0649447673e-01 1.6916783376e+00 -2.9300728307e+00 1.6916783376e+00 2.9300728307e+00 
13700 6.7785518522e+00 -1.0864103424e-01 1.6948269101e+00 -2.9355263184e+00 1.6948269101e+00 2.9355263184e+00 
13800 6.7786664949e+00 -1.1063519688e-01 1.6980329960e+00 -2.9410794220e+00 1.6980329960e+00 2.9410794220e+00 
13900 6.7785493431e+00 -1.1247760750e-01 1.7012917815e+00 -2.9467238040e+00 1.7012917815e+00 2.9467238040e+00 
14000 6.7782121304e+00 -1.1416885619e-01 1.7045985029e+00 -2.9524512136e+00 1.7045985029e+00 2.9524512136e+00 
14100 6.7776672048e+00 -1.1570950647e-01 1.7079484462e+00 -2.9582534855e+00 1.7079484462e+00 2.9582534855e+00 
14200 6.7769274284e+00 -1.1710011948e-01 1.7113369466e+00 -2.9641225403e+00 1.7113369466e+00 2.9641225403e+00 
14300 6.7760060787e+00 -1.1834127610e-01 1.7147593895e+00 -2.9700503853e+00 1.7147593895e+00 2.9700503853e+00 
14400 6.7749167548e+00 -1.1943359701e-01 1.7182112115e+00 -2.9760291165e+00 1.7182112115e+00 2.9760291165e+00 
14500 6.7736732865e+00 -1.2037776069e-01 1.7216879023e+00 -2.9820509215e+00 1.7216879023e+00 2.9820509215e+00 
14600 6.7722896480e+00 -1.2117451927e-01 1.7251850058e+00 -2.9881080825e+00 1.7251850058e+00 2.9881080825e+00 
14700 6.7707798756e+00 -1.2182471243e-01 1.7286981231e+00 -2.9941929802e+00 1.7286981231e+00 2.9941929802e+00 
14800 6.7691579903e+00 -1.2232927924e-01 1.7322229148e+00 -3.0002980985e+00 1.7322229148e+00 3.0002980985e+00 
14900 6.7674379248e+00 -1.2268926808e-01 1.7357551032e+00 -3.0064160283e+00 1.7357551032e+00 3.0064160283e+00 
15000 6.7656334559e+00 -1.2290584476e-01 1.7392904757e+00 -3.0125394731e+00 1.7392904757e+00 3.0125394731e+00 
15100 6.7637581412e+00 -1.2298029880e-01 1.7428248875e+00 -3.0186612538e+00 1.7428248875e+00 3.0186612538e+00 
15200 6.7618252612e+00 -1.2291404808e-01 1.7463542641e+00 -3.0247743134e+00 1.7463542641e+00 3.0247743134e+00 
15300 6.7598477656e+00 -1.2270864200e-01 1.7498746050e+00 -3.0308717227e+00 1.7498746050e+00 3.0308717227e+00 
15400 6.7578382257e+00 -1.2236576310e-01 1.7533819860e+00 -3.0369466848e+00 1.7533819860e+00 3.0369466848e+00 
15500 6.7558087902e+00 -1.2188722746e-01 1.7568725622e+00 -3.0429925401e+00 1.7568725622e+00 3.0429925401e+00 
15600 6.7537711467e+00 -1.2127498383e-01 1.7603425708e+00 -3.0490027714e+00 1.7603425708e+00 3.0490027714e+00 
15700 6.7517364872e+00 -1.2053111177e-01 1.7637883336e+00 -3.0549710076e+00 1.7637883336e+00 3.0549710076e+00 
15800 6.7497154784e+00 -1.1965781882e-01 1.7672062594e+00 -3.0608910287e+00 1.7672062594e+00 3.0608910287e+00 
15900 6.7477182359e+00 -1.1865743684e-01 1.7705928463e+00 -3.0667567693e+00 1.7705928463e+00 3.0667567693e+00 
16000 6.7457543028e+00 -1.1753241772e-01 1.7739446838e+00 -3.0725623222e+00 1.7739446838e+00 3.0725623222e+00 
16100 6.7438326317e+00 -1.1628532847e-01 1.7772584549e+00 -3.0783019420e+00 1.7772584549e+00 3.0783019420e+00 
16200 6.7419615712e+00 -1.1491884591e-01 1.7805309372e+00 -3.0839700477e+00 1.7805309372e+00 3.0839700477e+00 
16300 6.7401488550e+00 -1.1343575096e-01 1.7837590051e+00 -3.0895612254e+00 1.7837590051e+00 3.0895612254e+00 
16400 6.7384015948e+00 -1.1183892280e-01 1.7869396308e+00 -3.0950702306e+00 1.7869396308e+00 3.0950702306e+00 
16500 6.7367262765e+00 -1.1013133275e-01 1.7900698851e+00 -3.1004919900e+00 1.7900698851e+00 3.1004919900e+00 
16600 6.7351287588e+00 -1.0831603826e-01 1.7931469387e+00 -3.1058216033e+00 1.7931469387e+00 3.1058216033e+00 
16700 6.7336142747e+00 -1.0639617678e-01 1.7961680630e+00 -3.1110543440e+00 1.7961680630e+00 3.1110543440e+00 
16800 6.7321874354e+00 -1.0437495992e-01 1.7991306301e+00 -3.1161856607e+00 1.7991306301e+00 3.1161856607e+00 
16900 6.7308522372e+00 -1.0225566760e-01 1.8020321137e+00 -3.1212111778e+00 1.8020321137e+00 3.1212111778e+00 
17000 6.7296120695e+00 -1.0004164259e-01 1.8048700892e+00 -3.1261266955e+00 1.8048700892e+00 3.1261266955e+00 
17100 6.7284697254e+00 -9.7736285250e-02 1.8076422335e+00 -3.1309281903e+00 1.8076422335e+00 3.1309281903e+00 
17200 6.7274274143e+00 -9.5343048631e-02 1.8103463252e+00 -3.1356118146e+00 1.8103463252e+00 3.1356118146e+00 
17300 6.7264867755e+00 -9.2865433930e-02 1.8129802447e+00 -3.1401738970e+00 1.8129802447e+00 3.1401738970e+00 
17400 6.7256488940e+00 -9.0306986331e-02 1.8155419733e+00 -3.1446109411e+00 1.8155419733e+00 3.1446109411e+00 
17500 6.7249143174e+00 -8.7671291256e-02 1.8180295935e+00 -3.1489196256e+00 1.8180295935e+00 3.1489196256e+00 
17600 6.7242830735e+00 -8.4961971027e-02 1.8204412881e+00 -3.1530968033e+00 1.8204412881e+00 3.1530968033e+00 
17700 6.7237546905e+00 -8.2182681950e-02 1.8227753403e+00 -3.1571395002e+00 1.8227753403e+00 3.1571395002e+00 
17800 6.7233282167e+00 -7.9337111815e-02 1.8250301328e+00 -3.1610449153e+00 1.8250301328e+00 3.1610449153e+00 
17900 6.7230022416e+00 -7.6428977797e-02 1.8272041473e+00 -3.1648104190e+00 1.8272041473e+00 3.1648104190e+00 
18000 6.7227749186e+00 -7.3462024759e-02 1.8292959645e+00 -3.1684335526e+00 1.8292959645e+00 3.1684335526e+00 
18100 6.7226439874e+00 -7.0440023912e-02 1.8313042631e+00 -3.1719120278e+00 1.8313042631e+00 3.1719120278e+00 
18200 6.7226067973e+00 -6.7366771824e-02 1.8332278195e+00 -3.1752437252e+00 1.8332278195e+00 3.1752437252e+00 
18300 6.7226603320e+00 -6.4246089739e-02 1.8350655074e+00 -3.1784266941e+00 1.8350655074e+00 3.1784266941e+00 
18400 6.7228012332e+00 -6.1081823174e-02 1.8368162976e+00 -3.1814591517e+00 1.8368162976e+00 3.1814591517e+00 
18500 6.7230258266e+00 -5.7877841748e-02 1.8384792574e+00 -3.1843394824e+00 1.8384792574e+00 3.1843394824e+00 
18600 6.7233301467e+00 -5.4638039201e-02 1.8400535502e+00 -3.1870662375e+00 1.8400535502e+00 3.1870662375e+00 
18700 6.7237099627e+00 -5.1366333568e-02 1.8415384358e+00 -3.1896381349e+00 1.8415384358e+00 3.1896381349e+00 
18800 6.7241608045e+00 -4.8066667437e-02 1.8429332699e+00 -3.1920540584e+00 1.8429332699e+00 3.1920540584e+00 
18900 6.7246779893e+00 -4.4743008257e-02 1.8442375041e+00 -3.1943130583e+00 1.8442375041e+00 3.1943130583e+00 
19000 6.7252566473e+00 -4.1399348630e-02 1.8454506860e+00 -3.1964143509e+00 1.8454506860e+00 3.1964143509e+00 
19100 6.7258917488e+00 -3.8039706546e-02 1.8465724591e+00 -3.1983573190e+00 1.8465724591e+00 3.1983573190e+00 
19200 6.7265781304e+00 -3.4668125483e-02 1.8476025633e+00 -3.2001415118e+00 1.8476025633e+00 3.2001415118e+00 
19300 6.7273105216e+00 -3.1288674336e-02 1.8485408348e+00 -3.2017666458e+00 1.8485408348e+00 3.2017666458e+00 
19400 6.7280835711e+00 -2.7905447104e-02 1.8493872067e+00 -3.2032326049e+00 1.8493872067e+00 3.2032326049e+00 
19500 6.7288918733e+00 -2.4522562282e-02 1.8501417092e+00 -3.2045394415e+00 1.8501417092e+00 3.2045394415e+00 
19600 6.7297299942e+00 -2.1144161909e-02 1.8508044699e+00 -3.2056873768e+00 1.8508044699e+00 3.2056873768e+00 
19700 6.7305924973e+00 -1.7774410204e-02 1.8513757147e+00 -3.2066768018e+00 1.8513757147e+00 3.2066768018e+00 
19800 6.7314739688e+00 -1.4417491752e-02 1.8518557680e+00 -3.2075082784e+00 1.8518557680e+00 3.2075082784e+00 
19900 6.7323690430e+00 -1.1077609189e-02 1.8522450531e+00 -3.2081825400e+00 1.8522450531e+00 3.2081825400e+00 
20000 6.7332724266e+00 -7.7589803274e-03 1.8525440931e+00 -3.2087004925e+00 1.8525440931e+00 3.2087004925e+00 
20100 6.7341789227e+00 -4.4658347036e-03 1.8527535112e+00 -3.2090632153e+00 1.8527535112e+00 3.2090632153e+00 
20200 6.7350834540e+00 -1.2024094935e-03 1.8528740314e+00 -3.2092719624e+00 1.8528740314e+00 3.2092719624e+00 
20300 6.7359810854e+00 2.0270552252e-03 1.8529064786e+00 -3.2093281626e+00 1.8529064786e+00 3.2093281626e+00 
20400 6.7368670456e+00 5.2183218898e-03 1.8528517795e+00 -3.2092334211e+00 1.8528517795e+00 3.2092334211e+00 
20500 6.7377367479e+00 8.3671615642e-03 1.8527109627e+00 -3.2089895191e+00 1.8527109627e+00 3.2089895191e+00 
20600 6.7385858099e+00 1.1469360756e-02 1.8524851586e+00 -3.2085984150e+00 1.8524851586e+00 3.2085984150e+00 
20700 6.7394100723e+00 1.4520728939e-02 1.8521756004e+00 -3.2080622444e+00 1.8521756004e+00 3.2080622444e+00 
20800 6.7402056158e+00 1.7517106771e-02 1.8517836231e+00 -3.2073833198e+00 1.8517836231e+00 3.2073833198e+00 
20900 6.7409687775e+00 2.0454374996e-02 1.8513106639e+00 -3.2065641305e+00 1.8513106639e+00 3.2065641305e+00 
21000 6.7416961657e+00 2.3328463998e-02 1.8507582618e+00 -3.2056073420e+00 1.8507582618e+00 3.2056073420e+00 
21100 6.7423846727e+00 2.6135363975e-02 1.8501280569e+00 -3.2045157950e+00 1.8501280569e+00 3.2045157950e+00 
21200 6.7430314869e+00 2.8871135684e-02 1.8494217896e+00 -3.2032925041e+00 1.8494217896e+00 3.2032925041e+00 
21300 6.7436341022e+00 3.1531921707e-02 1.8486412996e+00 -3.2019406558e+00 1.8486412996e+00 3.2019406558e+00 
21400 6.7441903269e+00 3.4113958166e-02 1.8477885247e+00 -3.2004636064e+00 1.8477885247e+00 3.2004636064e+00 
21500 6.7446982899e+00 3.6613586818e-02 1.8468654993e+00 -3.1988648795e+00 1.8468654993e+00 3.1988648795e+00 
21600 6.7451564452e+00 3.9027267449e-02 1.8458743521e+00 -3.1971481622e+00 1.8458743521e+00 3.1971481622e+00 
21700 6.7455635752e+00 4.1351590471e-02 1.8448173045e+00 -3.1953173021e+00 1.8448173045e+00 3.1953173021e+00 
21800 6.7459187910e+00 4.3583289620e-02 1.8436966678e+00 -3.1933763024e+00 1.8436966678e+00 3.1933763024e+00 
21900 6.7462215321e+00 4.5719254673e-02 1.8425148403e+00 -3.1913293170e+00 1.8425148403e+00 3.1913293170e+00 
22000 6.7464715627e+00 4.7756544038e-02 1.8412743042e+00 -3.1891806456e+00 1.8412743042e+00 3.1891806456e+00 
22100 6.7466689675e+00 4.9692397140e-02 1.8399776225e+00 -3.1869347270e+00 1.8399776225e+00 3.1869347270e+00 
22200 6.7468141445e+00 5.1524246457e-02 1.8386274345e+00 -3.1845961328e+00 1.8386274345e+00 3.1845961328e+00 
22300 6.7469077965e+00 5.3249729116e-02 1.8372264520e+00 -3.1821695599e+00 1.8372264520e+00 3.1821695599e+00 
22400 6.7469509210e+00 5.4866697901e-02 1.8357774547e+00 -3.1796598230e+00 1.8357774547e+00 3.1796598230e+00 
22500 6.7469447974e+00 5.6373231591e-02 1.8342832854e+00 -3.1770718458e+00 1.8342832854e+00 3.1770718458e+00 
22600 6.7468909739e+00 5.7767644484e-02 1.8327468446e+00 -3.1744106522e+00 1.8327468446e+00 3.1744106522e+00 
22700 6.7467912516e+00 5.9048495031e-02 1.8311710853e+00 -3.1716813570e+00 1.8311710853e+00 3.1716813570e+00 
22800 6.7466476679e+00 6.0214593453e-02 1.8295590070e+00 -3.1688891556e+00 1.8295590070e+00 3.1688891556e+00 
22900 6.7464624780e+00 6.1265008272e-02 1.8279136499e+00 -3.1660393134e+00 1.8279136499e+00 3.1660393134e+00 
23000 6.7462381362e+00 6.2199071658e-02 1.8262380883e+00 -3.1631371556e+00 1.8262380883e+00 3.1631371556e+00 
23100 6.7459772751e+00 6.3016383532e-02 1.8245354243e+00 -3.1601880551e+00 1.8245354243e+00 3.1601880551e+00 
23200 6.7456826841e+00 6.3716814363e-02 1.8228087811e+00 -3.1571974214e+00 1.8228087811e+00 3.1571974214e+00 
23300 6.7453572878e+00 6.4300506608e-02 1.8210612960e+00 -3.1541706884e+00 1.8210612960e+00 3.1541706884e+00 
23400 6.7450041236e+00 6.4767874773e-02 1.8192961136e+00 -3.1511133028e+00 1.8192961136e+00 3.1511133028e+00 
23500 6.7446263183e+00 6.5119604073e-02 1.8175163786e+00 -3.1480307112e+00 1.8175163786e+00 3.1480307112e+00 
23600 6.7442270653e+00 6.5356647693e-02 1.8157252284e+00 -3.1449283481e+00 1.8157252284e+00 3.1449283481e+00 
23700 6.7438096016e+00 6.5480222648e-02 1.8139257865e+00 -3.1418116234e+00 1.8139257865e+00 3.1418116234e+00 
23800 6.7433771847e+00 6.5491804299e-02 1.8121211550e+00 -3.1386859099e+00 1.8121211550e+00 3.1386859099e+00 
23900 6.7429330701e+00 6.5393119528e-02 1.8103144074e+00 -3.1355565314e+00 1.8103144074e+00 3.1355565314e+00 
24000 6.7424804894e+00 6.5186138667e-02 1.8085085820e+00 -3.1324287500e+00 1.8085085820e+00 3.1324287500e+00 
24100 6.7420226288e+00 6.4873066221e-02 1.8067066746e+00 -3.1293077548e+00 1.8067066746e+00 3.1293077548e+00 
24200 6.7415626088e+00 6.4456330475e-02 1.8049116319e+00 -3.1261986497e+00 1.8049116319e+00 3.1261986497e+00 
24300 6.7411034645e+00 6.3938572082e-02 1.8031263453e+00 -3.1231064425e+00 1.8031263453e+00 3.1231064425e+00 
24400 6.7406481274e+00 6.3322631723e-02 1.8013536441e+00 -3.1200360340e+00 1.8013536441e+00 3.1200360340e+00 
24500 6.7401994083e+00 6.2611536952e-02 1.7995962900e+00 -3.1169922075e+00 1.7995962900e+00 3.1169922075e+00 
24600 6.7397599815e+00 6.1808488340e-02 1.7978569711e+00 -3.1139796186e+00 1.7978569711e+00 3.1139796186e+00 
24700 6.7393323707e+00 6.0916845040e-02 1.7961382963e+00 -3.1110027865e+00 1.7961382963e+00 3.1110027865e+00 
24800 6.7389189360e+00 5.9940109881e-02 1.7944427907e+00 -3.1080660847e+00 1.7944427907e+00 3.1080660847e+00 
24900 6.7385218630e+00 5.8881914141e-02 1.7927728906e+00 -3.1051737329e+00 1.7927728906e+00 3.1051737329e+00 
25000 6.7381431535e+00 5.7746002088e-02 1.7911309393e+00 -3.1023297898e+00 1.7911309393e+00 3.1023297898e+00 
25100 6.7377846170e+00 5.6536215439e-02 1.7895191829e+00 -3.0995381460e+00 1.7895191829e+00 3.0995381460e+00 
25200 6.7374478655e+00 5.5256477837e-02 1.7879397673e+00 -3.0968025179e+00 1.7879397673e+00 3.0968025179e+00 
25300 6.7371343083e+00 5.3910779464e-02 1.7863947345e+00 -3.0941264426e+00 1.7863947345e+00 3.0941264426e+00 
25400 6.7368451496e+00 5.2503161892e-02 1.7848860203e+00 -3.0915132729e+00 1.7848860203e+00 3.0915132729e+00 
25500 6.7365813873e+00 5.1037703284e-02 1.7834154517e+00 -3.0889661734e+00 1.7834154517e+00 3.0889661734e+00 
25600 6.7363438135e+00 4.9518504010e-02 1.7819847455e+00 -3.0864881175e+00 1.7819847455e+00 3.0864881175e+00 
25700 6.7361330161e+00 4.7949672791e-02 1.7805955062e+00 -3.0840818844e+00 1.7805955062e+00 3.0840818844e+00 
25800 6.7359493827e+00 4.6335313419e-02 1.7792492256e+00 -3.0817500580e+00 1.7792492256e+00 3.0817500580e+00 
25900 6.7357931050e+00 4.4679512127e-02 1.7779472815e+00 -3.0794950248e+00 1.7779472815e+00 3.0794950248e+00 
26000 6.7356641851e+00 4.2986325663e-02 1.7766909382e+00 -3.0773189742e+00 1.7766909382e+00 3.0773189742e+00 
26100 6.7355624425e+00 4.1259770100e-02 1.7754813456e+00 -3.0752238984e+00 1.7754813456e+00 3.0752238984e+00 
26200 6.7354875225e+00 3.9503810430e-02 1.7743195404e+00 -3.0732115929e+00 1.7743195404e+00 3.0732115929e+00 
26300 6.7354389052e+00 3.7722350950e-02 1.7732064468e+00 -3.0712836581e+00 1.7732064468e+00 3.0712836581e+00 
26400 6.7354159161e+00 3.5919226465e-02 1.7721428769e+00 -3.0694415011e+00 1.7721428769e+00 3.0694415011e+00 
26500 6.7354177364e+00 3.4098194309e-02 1.7711295331e+00 -3.0676863381e+00 1.7711295331e+00 3.0676863381e+00 
26600 6.7354434147e+00 3.2262927173e-02 1.7701670088e+00 -3.0660191971e+00 1.7701670088e+00 3.0660191971e+00 
26700 6.7354918787e+00 3.0417006746e-02 1.7692557909e+00 -3.0644409214e+00 1.7692557909e+00 3.0644409214e+00 
26800 6.7355619477e+00 2.8563918137e-02 1.7683962616e+00 -3.0629521731e+00 1.7683962616e+00 3.0629521731e+00 
26900 6.7356523450e+00 2.6707045057e-02 1.7675887010e+00 -3.0615534371e+00 1.7675887010e+00 3.0615534371e+00 
27000 6.7357617107e+00 2.4849665736e-02 1.7668332894e+00 -3.0602450257e+00 1.7668332894e+00 3.0602450257e+00 
27100 6.7358886142e+00 2.2994949544e-02 1.7661301100e+00 -3.0590270832e+00 1.7661301100e+00 3.0590270832e+00 
27200 6.7360315674e+00 2.1145954266e-02 1.7654791518e+00 -3.0578995906e+00 1.7654791518e+00 3.0578995906e+00 
27300 6.7361890365e+00 1.9305624008e-02 1.7648803127e+00 -3.0568623709e+00 1.7648803127e+00 3.0568623709e+00 
27400 6.7363594552e+00 1.7476787677e-02 1.7643334023e+00 -3.0559150944e+00 1.7643334023e+00 3.0559150944e+00 
27500 6.7365412359e+00 1.5662158005e-02 1.7638381453e+00 -3.0550572840e+00 1.7638381453e+00 3.0550572840e+00 
27600 6.7367327816e+00 1.3864331057e-02 1.7633941845e+00 -3.0542883213e+00 1.7633941845e+00 3.0542883213e+00 
27700 6.7369324971e+00 1.2085786198e-02 1.7630010842e+00 -3.0536074516e+00 1.7630010842e+00 3.0536074516e+00 
27800 6.7371387996e+00 1.0328886457e-02 1.7626583336e+00 -3.0530137901e+00 1.7626583336e+00 3.0530137901e+00 
27900 6.7373501286e+00 8.5958792529e-03 1.7623653500e+00 -3.0525063276e+00 1.7623653500e+00 3.0525063276e+00 
28000 6.7375649552e+00 6.8888974440e-03 1.7621214822e+00 -3.0520839363e+00 1.7621214822e+00 3.0520839363e+00 
28100 6.7377817914e+00 5.2099606529e-03 1.7619260141e+00 -3.0517453757e+00 1.7619260141e+00 3.0517453757e+00 
28200 6.7379991975e+00 3.5609768333e-03 1.7617781678e+00 -3.0514892982e+00 1.7617781678e+00 3.0514892982e+00 
28300 6.7382157898e+00 1.9437440418e-03 1.7616771067e+00 -3.0513142554e+00 1.7616771067e+00 3.0513142554e+00 
28400 6.7384302473e+00 3.5995237965e-04 1.7616219396e+00 -3.0512187031e+00 1.7616219396e+00 3.0512187031e+00 
28500 6.7386413172e+00 -1.1888139246e-03 1.7616117231e+00 -3.0512010076e+00 1.7616117231e+00 3.0512010076e+00 
28600 6.7388478207e+00 -2.7010743228e-03 1.7616454654e+00 -3.0512594510e+00 1.7616454654e+00 3.0512594510e+00 
28700 6.7390486567e+00 -4.1754496693e-03 1.7617221294e+00 -3.0513922369e+00 1.7617221294e+00 3.0513922369e+00 
28800 6.7392428058e+00 -5.6106598824e-03 1.7618406355e+00 -3.0515974955e+00 1.7618406355e+00 3.0515974955e+00 
28900 6.7394293335e+00 -7.0055215648e-03 1.7619998651e+00 -3.0518732893e+00 1.7619998651e+00 3.0518732893e+00 
29000 6.7396073921e+00 -8.3589456023e-03 1.7621986634e+00 -3.0522176181e+00 1.7621986634e+00 3.0522176181e+00 
29100 6.7397762222e+00 -9.6699347572e-03 1.7624358425e+00 -3.0526284243e+00 1.7624358425e+00 3.0526284243e+00 
29200 6.7399351540e+00 -1.0937581268e-02 1.7627101840e+00 -3.0531035977e+00 1.7627101840e+00 3.0531035977e+00 
29300 6.7400836074e+00 -1.2161064471e-02 1.7630204421e+00 -3.0536409805e+00 1.7630204421e+00 3.0536409805e+00 
29400 6.7402210915e+00 -1.3339648447e-02 1.7633653462e+00 -3.0542383720e+00 1.7633653462e+00 3.0542383720e+00 
29500 6.7403472043e+00 -1.4472679705e-02 1.7637436038e+00 -3.0548935333e+00 1.7637436038e+00 3.0548935333e+00 
29600 6.7404616305e+00 -1.5559584917e-02 1.7641539027e+00 -3.0556041918e+00 1.7641539027e+00 3.0556041918e+00 
29700 6.7405641403e+00 -1.6599868683e-02 1.7645949139e+00 -3.0563680456e+00 1.7645949139e+00 3.0563680456e+00 
29800 6.7406545867e+00 -1.7593111360e-02 1.7650652940e+00 -3.0571827678e+00 1.7650652940e+00 3.0571827678e+00 
29900 6.7407329029e+00 -1.8538966938e-02 1.7655636874e+00 -3.0580460106e+00 1.7655636874e+00 3.0580460106e+00 
30000 6.7407990991e+00 -1.9437160965e-02 1.7660887289e+00 -3.0589554092e+00 1.7660887289e+00 3.0589554092e+00 
30100 6.7408532589e+00 -2.0287488531e-02 1.7666390459e+00 -3.0599085861e+00 1.7666390459e+00 3.0599085861e+00 
30200 6.7408955359e+00 -2.1089812294e-02 1.7672132601e+00 -3.0609031543e+00 1.7672132601e+00 3.0609031543e+00 
30300 6.7409261494e+00 -2.1844060563e-02 1.7678099906e+00 -3.0619367218e+00 1.7678099906e+00 3.0619367218e+00 
30400 6.7409453804e+00 -2.2550225426e-02 1.7684278548e+00 -3.0630068941e+00 1.7684278548e+00 3.0630068941e+00 
30500 6.7409535667e+00 -2.3208360919e-02 1.7690654715e+00 -3.0641112785e+00 1.7690654715e+00 3.0641112785e+00 
30600 6.7409510990e+00 -2.3818581243e-02 1.7697214617e+00 -3.0652474869e+00 1.7697214617e+00 3.0652474869e+00 
30700 6.7409384158e+00 -2.4381059014e-02 1.7703944515e+00 -3.0664131395e+00 1.7703944515e+00 3.0664131395e+00 
30800 6.7409159988e+00 -2.4896023554e-02 1.7710830732e+00 -3.0676058672e+00 1.7710830732e+00 3.0676058672e+00 
30900 6.7408843683e+00 -2.5363759204e-02 1.7717859671e+00 -3.0688233151e+00 1.7717859671e+00 3.0688233151e+00 
31000 6.7408440780e+00 -2.5784603681e-02 1.7725017834e+00 -3.0700631453e+00 1.7725017834e+00 3.0700631453e+00 
31100 6.7407957107e+00 -2.6158946446e-02 1.7732291837e+00 -3.0713230396e+00 1.7732291837e+00 3.0713230396e+00 
31200 6.7407398733e+00 -2.6487227104e-02 1.7739668424e+00 -3.0726007020e+00 1.7739668424e+00 3.0726007020e+00 
31300 6.7406771922e+00 -2.6769933820e-02 1.7747134484e+00 -3.0738938614e+00 1.7747134484e+00 3.0738938614e+00 
31400 6.7406083090e+00 -2.7007601749e-02 1.7754677062e+00 -3.0752002743e+00 1.7754677062e+00 3.0752002743e+00 
31500 6.7405338757e+00 -2.7200811489e-02 1.7762283375e+00 -3.0765177265e+00 1.7762283375e+00 3.0765177265e+00 
31600 6.7404545506e+00 -2.7350187537e-02 1.7769940827e+00 -3.0778440360e+00 1.7769940827e+00 3.0778440360e+00 
31700 6.7403709944e+00 -2.7456396759e-02 1.7777637015e+00 -3.0791770548e+00 1.7777637015e+00 3.0791770548e+00 
31800 6.7402838659e+00 -2.7520146867e-02 1.7785359746e+00 -3.0805146712e+00 1.7785359746e+00 3.0805146712e+00 
31900 6.7401938182e+00 -2.7542184901e-02 1.7793097049e+00 -3.0818548112e+00 1.7793097049e+00 3.0818548112e+00 
32000 6.7401014956e+00 -2.7523295722e-02 1.7800837180e+00 -3.0831954413e+00 1.7800837180e+00 3.0831954413e+00 
32100 6.7400075297e+00 -2.7464300497e-02 1.7808568638e+00 -3.0845345692e+00 1.7808568638e+00 3.0845345692e+00 
32200 6.7399125368e+00 -2.7366055198e-02 1.7816280174e+00 -3.0858702463e+00 1.7816280174e+00 3.0858702463e+00 
32300 6.7398171144e+00 -2.7229449097e-02 1.7823960795e+00 -3.0872005689e+00 1.7823960795e+00 3.0872005689e+00 
32400 6.7397218389e+00 -2.7055403262e-02 1.7831599780e+00 -3.0885236799e+00 1.7831599780e+00 3.0885236799e+00 
32500 6.7396272633e+00 -2.6844869056e-02 1.7839186682e+00 -3.0898377699e+00 1.7839186682e+00 3.0898377699e+00 
32600 6.7395339145e+00 -2.6598826632e-02 1.7846711340e+00 -3.0911410789e+00 1.7846711340e+00 3.0911410789e+00 
32700 6.7394422918e+00 -2.6318283435e-02 1.7854163883e+00 -3.0924318972e+00 1.7854163883e+00 3.0924318972e+00 
32800 6.7393528649e+00 -2.6004272695e-02 1.7861534739e+00 -3.0937085669e+00 1.7861534739e+00 3.0937085669e+00 
32900 6.7392660724e+00 -2.5657851930e-02 1.7868814639e+00 -3.0949694826e+00 1.7868814639e+00 3.0949694826e+00 
33000 6.7391823208e+00 -2.5280101441e-02 1.7875994626e+00 -3.0962130928e+00 1.7875994626e+00 3.0962130928e+00 
33100 6.7391019834e+00 -2.4872122807e-02 1.7883066055e+00 -3.0974379003e+00 1.7883066055e+00 3.0974379003e+00 
33200 6.7390253991e+00 -2.4435037392e-02 1.7890020605e+00 -3.0986424636e+00 1.7890020605e+00 3.0986424636e+00 
33300 6.7389528725e+00 -2.3969984835e-02 1.7896850276e+00 -3.0998253974e+00 1.7896850276e+00 3.0998253974e+00 
33400 6.7388846729e+00 -2.3478121557e-02 1.7903547398e+00 -3.1009853730e+00 1.7903547398e+00 3.1009853730e+00 
33500 6.7388210347e+00 -2.2960619260e-02 1.7910104634e+00 -3.1021211194e+00 1.7910104634e+00 3.1021211194e+00 
33600 6.7387621569e+00 -2.2418663434e-02 1.7916514978e+00 -3.1032314237e+00 1.7916514978e+00 3.1032314237e+00 
33700 6.7387082038e+00 -2.1853451857e-02 1.7922771766e+00 -3.1043151312e+00 1.7922771766e+00 3.1043151312e+00 
33800 6.7386593051e+00 -2.1266193110e-02 1.7928868672e+00 -3.1053711462e+00 1.7928868672e+00 3.1053711462e+00 
33900 6.7386155568e+00 -2.0658105088e-02 1.7934799711e+00 -3.1063984324e+00 1.7934799711e+00 3.1063984324e+00 
34000 6.7385770217e+00 -2.0030413511e-02 1.7940559243e+00 -3.1073960126e+00 1.7940559243e+00 3.1073960126e+00 
34100 6.7385437302e+00 -1.9384350450e-02 1.7946141971e+00 -3.1083629694e+00 1.7946141971e+00 3.1083629694e+00 
34200 6.7385156818e+00 -1.8721152846e-02 1.7951542943e+00 -3.1092984452e+00 1.7951542943e+00 3.1092984452e+00 
34300 6.7384928457e+00 -1.8042061039e-02 1.7956757553e+00 -3.1102016422e+00 1.7956757553e+00 3.1102016422e+00 
34400 6.7384751625e+00 -1.7348317308e-02 1.7961781540e+00 -3.1110718222e+00 1.7961781540e+00 3.1110718222e+00 
34500 6.7384625456e+00 -1.6641164403e-02 1.7966610987e+00 -3.1119083069e+00 1.7966610987e+00 3.1119083069e+00 
34600 6.7384548825e+00 -1.5921844099e-02 1.7971242322e+00 -3.1127104777e+00 1.7971242322e+00 3.1127104777e+00 
34700 6.7384520363e+00 -1.5191595747e-02 1.7975672316e+00 -3.1134777751e+00 1.7975672316e+00 3.1134777751e+00 
34800 6.7384538478e+00 -1.4451654834e-02 1.7979898080e+00 -3.1142096990e+00 1.7979898080e+00 3.1142096990e+00 
34900 6.7384601366e+00 -1.3703251556e-02 1.7983917066e+00 -3.1149058078e+00 1.7983917066e+00 3.1149058078e+00 
35000 6.7384707035e+00 -1.2947609398e-02 1.7987727064e+00 -3.1155657187e+00 1.7987727064e+00 3.1155657187e+00 
35100 6.7384853318e+00 -1.2185943718e-02 1.7991326196e+00 -3.1161891067e+00 1.7991326196e+00 3.1161891067e+00 
35200 6.7385037895e+00 -1.1419460355e-02 1.7994712918e+00 -3.1167757042e+00 1.7994712918e+00 3.1167757042e+00 
35300 6.7385258309e+00 -1.0649354235e-02 1.7997886016e+00 -3.1173253008e+00 1.7997886016e+00 3.1173253008e+00 
35400 6.7385511986e+00 -9.8768079970e-03 1.8000844598e+00 -3.1178377424e+00 1.8000844598e+00 3.1178377424e+00 
35500 6.7385796253e+00 -9.1029906344e-03 1.8003588097e+00 -3.1183129303e+00 1.8003588097e+00 3.1183129303e+00 
35600 6.7386108359e+00 -8.3290561469e-03 1.8006116261e+00 -3.1187508211e+00 1.8006116261e+00 3.1187508211e+00 
35700 6.7386445488e+00 -7.5561422125e-03 1.8008429151e+00 -3.1191514254e+00 1.8008429151e+00 3.1191514254e+00 
35800 6.7386804782e+00 -6.7853688757e-03 1.8010527138e+00 -3.1195148074e+00 1.8010527138e+00 3.1195148074e+00 
35900 6.7387183359e+00 -6.0178372562e-03 1.8012410894e+00 -3.1198410835e+00 1.8012410894e+00 3.1198410835e+00 
36000 6.7387578325e+00 -5.2546282785e-03 1.8014081389e+00 -3.1201304218e+00 1.8014081389e+00 3.1201304218e+00 
36100 6.7387986797e+00 -4.4968014245e-03 1.8015539887e+00 -3.1203830410e+00 1.8015539887e+00 3.1203830410e+00 
36200 6.7388405913e+00 -3.7453935106e-03 1.8016787935e+00 -3.1205992093e+00 1.8016787935e+00 3.1205992093e+00 
36300 6.7388832853e+00 -3.0014174925e-03 1.8017827363e+00 -3.1207792435e+00 1.8017827363e+00 3.1207792435e+00 
36400 6.7389264850e+00 -2.2658612976e-03 1.8018660272e+00 -3.1209235075e+00 1.8018660272e+00 3.1209235075e+00 
36500 6.7389699207e+00 -1.5396866889e-03 1.8019289029e+00 -3.1210324115e+00 1.8019289029e+00 3.1210324115e+00 
36600 6.7390133305e+00 -8.2382816226e-04 1.8019716264e+00 -3.1211064107e+00 1.8019716264e+00 3.1211064107e+00 
36700 6.7390564621e+00 -1.1919187873e-04 1.8019944855e+00 -3.1211460039e+00 1.8019944855e+00 3.1211460039e+00 
36800 6.7390990737e+00 5.7334536552e-04 1.8019977927e+00 -3.1211517322e+00 1.8019977927e+00 3.1211517322e+00 
36900 6.7391409348e+00 1.2529371289e-03 1.8019818842e+00 -3.1211241777e+00 1.8019818842e+00 3.1211241777e+00 
37000 6.7391818274e+00 1.9187682716e-03 1.8019471187e+00 -3.1210639622e+00 1.8019471187e+00 3.1210639622e+00 
37100 6.7392215469e+00 2.5700558583e-03 1.8018938775e+00 -3.1209717456e+00 1.8018938775e+00 3.1209717456e+00 
37200 6.7392599026e+00 3.2060500130e-03 1.8018225625e+00 -3.1208482245e+00 1.8018225625e+00 3.1208482245e+00 
37300 6.7392967185e+00 3.8260347243e-03 1.8017335964e+00 -3.1206941307e+00 1.8017335964e+00 3.1206941307e+00 
37400 6.7393318336e+00 4.4293285989e-03 1.8016274210e+00 -3.1205102294e+00 1.8016274210e+00 3.1205102294e+00 
37500 6.7393651026e+00 5.0152855602e-03 1.8015044966e+00 -3.1202973182e+00 1.8015044966e+00 3.1202973182e+00 
37600 6.7393963962e+00 5.5832954904e-03 1.8013653013e+00 -3.1200562248e+00 1.8013653013e+00 3.1200562248e+00 
37700 6.7394256010e+00 6.1327848138e-03 1.8012103295e+00 -3.1197878058e+00 1.8012103295e+00 3.1197878058e+00 
37800 6.7394526200e+00 6.6632170191e-03 1.8010400915e+00 -3.1194929450e+00 1.8010400915e+00 3.1194929450e+00 
37900 6.7394773723e+00 7.1740931187e-03 1.8008551122e+00 -3.1191725514e+00 1.8008551122e+00 3.1191725514e+00 
38000 6.7394997933e+00 7.6649520436e-03 1.8006559301e+00 -3.1188275579e+00 1.8006559301e+00 3.1188275579e+00 
38100 6.7395198344e+00 8.1353709720e-03 1.8004430965e+00 -3.1184589194e+00 1.8004430965e+00 3.1184589194e+00 
38200 6.7395374628e+00 8.5849655893e-03 1.8002171744e+00 -3.1180676107e+00 1.8002171744e+00 3.1180676107e+00 
38300 6.7395526610e+00 9.0133902805e-03 1.7999787371e+00 -3.1176546253e+00 1.7999787371e+00 3.1176546253e+00 
38400 6.7395654266e+00 9.4203382507e-03 1.7997283680e+00 -3.1172209732e+00 1.7997283680e+00 3.1172209732e+00 
38500 6.7395757717e+00 9.8055415763e-03 1.7994666588e+00 -3.1167676796e+00 1.7994666588e+00 3.1167676796e+00 
38600 6.7395837223e+00 1.0168771183e-02 1.7991942088e+00 -3.1162957823e+00 1.7991942088e+00 3.1162957823e+00 
38700 6.7395893179e+00 1.0509836753e-02 1.7989116238e+00 -3.1158063308e+00 1.7989116238e+00 3.1158063308e+00 
38800 6.7395926103e+00 1.0828586559e-02 1.7986195152e+00 -3.1153003838e+00 1.7986195152e+00 3.1153003838e+00 
38900 6.7395936636e+00 1.1124907227e-02 1.7983184987e+00 -3.1147790079e+00 1.7983184987e+00 3.1147790079e+00 
39000 6.7395925529e+00 1.1398723427e-02 1.7980091934e+00 -3.1142432754e+00 1.7980091934e+00 3.1142432754e+00 
39100 6.7395893633e+00 1.1649997490e-02 1.7976922209e+00 -3.1136942630e+00 1.7976922209e+00 3.1136942630e+00 
39200 6.7395841898e+00 1.1878728962e-02 1.7973682042e+00 -3.1131330495e+00 1.7973682042e+00 3.1131330495e+00 
39300 6.7395771355e+00 1.2084954082e-02 1.7970377664e+00 -3.1125607146e+00 1.7970377664e+00 3.1125607146e+00 
39400 6.7395683116e+00 1.2268745191e-02 1.7967015304e+00 -3.1119783367e+00 1.7967015304e+00 3.1119783367e+00 
39500 6.7395578356e+00 1.2430210085e-02 1.7963601171e+00 -3.1113869915e+00 1.7963601171e+00 3.1113869915e+00 
39600 6.7395458310e+00 1.2569491293e-02 1.7960141450e+00 -3.1107877502e+00 1.7960141450e+00 3.1107877502e+00 
39700 6.7395324260e+00 1.2686765301e-02 1.7956642289e+00 -3.1101816778e+00 1.7956642289e+00 3.1101816778e+00 
39800 6.7395177527e+00 1.2782241708e-02 1.7953109794e+00 -3.1095698318e+00 1.7953109794e+00 3.1095698318e+00 
39900 6.7395019464e+00 1.2856162336e-02 1.7949550016e+00 -3.1089532600e+00 1.7949550016e+00 3.1089532600e+00 
40000 6.7394851440e+00 1.2908800276e-02 1.7945968941e+00 -3.1083329997e+00 1.7945968941e+00 3.1083329997e+00 
40100 6.7394674839e+00 1.2940458890e-02 1.7942372488e+00 -3.1077100757e+00 1.7942372488e+00 3.1077100757e+00 
40200 6.7394491046e+00 1.2951470759e-02 1.7938766492e+00 -3.1070854988e+00 1.7938766492e+00 3.1070854988e+00 
40300 6.7394301441e+00 1.2942196590e-02 1.7935156701e+00 -3.1064602649e+00 1.7935156701e+00 3.1064602649e+00 
40400 6.7394107388e+00 1.2913024083e-02 1.7931548770e+00 -3.1058353528e+00 1.7931548770e+00 3.1058353528e+00 
40500 6.7393910231e+00 1.2864366756e-02 1.7927948247e+00 -3.1052117239e+00 1.7927948247e+00 3.1052117239e+00 
40600 6.7393711284e+00 1.2796662738e-02 1.7924360570e+00 -3.1045903200e+00 1.7924360570e+00 3.1045903200e+00 
40700 6.7393511824e+00 1.2710373535e-02 1.7920791060e+00 -3.1039720627e+00 1.7920791060e+00 3.1039720627e+00 
40800 6.7393313086e+00 1.2605982764e-02 1.7917244912e+00 -3.1033578519e+00 1.7917244912e+00 3.1033578519e+00 
40900 6.7393116257e+00 1.2483994866e-02 1.7913727192e+00 -3.1027485649e+00 1.7913727192e+00 3.1027485649e+00 
41000 6.7392922467e+00 1.2344933802e-02 1.7910242828e+00 -3.1021450553e+00 1.7910242828e+00 3.1021450553e+00 
41100 6.7392732788e+00 1.2189341737e-02 1.7906796605e+00 -3.1015481520e+00 1.7906796605e+00 3.1015481520e+00 
41200 6.7392548230e+00 1.2017777698e-02 1.7903393161e+00 -3.1009586582e+00 1.7903393161e+00 3.1009586582e+00 
41300 6.7392369732e+00 1.1830816248e-02 1.7900036981e+00 -3.1003773508e+00 1.7900036981e+00 3.1003773508e+00 
41400 6.7392198163e+00 1.1629046133e-02 1.7896732392e+00 -3.0998049793e+00 1.7896732392e+00 3.0998049793e+00 
41500 6.7392034320e+00 1.1413068944e-02 1.7893483560e+00 -3.0992422651e+00 1.7893483560e+00 3.0992422651e+00 
41600 6.7391878922e+00 1.1183497777e-02 1.7890294486e+00 -3.0986899012e+00 1.7890294486e+00 3.0986899012e+00 
41700 6.7391732609e+00 1.0940955900e-02 1.7887169000e+00 -3.0981485512e+00 1.7887169000e+00 3.0981485512e+00 
41800 6.7391595946e+00 1.0686075427e-02 1.7884110762e+00 -3.0976188488e+00 1.7884110762e+00 3.0976188488e+00 
41900 6.7391469415e+00 1.0419496014e-02 1.7881123256e+00 -3.0971013976e+00 1.7881123256e+00 3.0971013976e+00 
42000 6.7391353420e+00 1.0141863562e-02 1.7878209789e+00 -3.0965967703e+00 1.7878209789e+00 3.0965967703e+00 
42100 6.7391248284e+00 9.8538289419e-03 1.7875373489e+00 -3.0961055086e+00 1.7875373489e+00 3.0961055086e+00 
42200 6.7391154255e+00 9.5560467430e-03 1.7872617301e+00 -3.0956281230e+00 1.7872617301e+00 3.0956281230e+00 
42300 6.7391071501e+00 9.2491740443e-03 1.7869943991e+00 -3.0951650922e+00 1.7869943991e+00 3.0951650922e+00 
42400 6.7391000117e+00 8.9338692123e-03 1.7867356140e+00 -3.0947168632e+00 1.7867356140e+00 3.0947168632e+00 
42500 6.7390940122e+00 8.6107907271e-03 1.7864856145e+00 -3.0942838513e+00 1.7864856145e+00 3.0942838513e+00 
42600 6.7390891468e+00 8.2805960402e-03 1.7862446219e+00 -3.0938664399e+00 1.7862446219e+00 3.0938664399e+00 
42700 6.7390854037e+00 7.9439404636e-03 1.7860128391e+00 -3.0934649802e+00 1.7860128391e+00 3.0934649802e+00 
42800 6.7390827649e+00 7.6014760944e-03 1.7857904505e+00 -3.0930797920e+00 1.7857904505e+00 3.0930797920e+00 
42900 6.7390812060e+00 7.2538507731e-03 1.7855776225e+00 -3.0927111630e+00 1.7855776225e+00 3.0927111630e+00 
43000 6.7390806972e+00 6.9017070805e-03 1.7853745030e+00 -3.0923593497e+00 1.7853745030e+00 3.0923593497e+00 
43100 6.7390812032e+00 6.5456813709e-03 1.7851812219e+00 -3.0920245770e+00 1.7851812219e+00 3.0920245770e+00 
43200 6.7390826838e+00 6.1864028450e-03 1.7849978912e+00 -3.0917070390e+00 1.7849978912e+00 3.0917070390e+00 
43300 6.7390850946e+00 5.8244926619e-03 1.7848246052e+00 -3.0914068988e+00 1.7848246052e+00 3.0914068988e+00 
43400 6.7390883867e+00 5.4605630909e-03 1.7846614406e+00 -3.0911242895e+00 1.7846614406e+00 3.0911242895e+00 
43500 6.7390925081e+00 5.0952167048e-03 1.7845084568e+00 -3.0908593138e+00 1.7845084568e+00 3.0908593138e+00 
43600 6.7390974033e+00 4.7290456123e-03 1.7843656963e+00 -3.0906120452e+00 1.7843656963e+00 3.0906120452e+00 
43700 6.7391030145e+00 4.3626307331e-03 1.7842331846e+00 -3.0903825282e+00 1.7842331846e+00 3.0903825282e+00 
43800 6.7391092813e+00 3.9965411126e-03 1.7841109309e+00 -3.0901707787e+00 1.7841109309e+00 3.0901707787e+00 
43900 6.7391161418e+00 3.6313332779e-03 1.7839989284e+00 -3.0899767846e+00 1.7839989284e+00 3.0899767846e+00 
44000 6.7391235328e+00 3.2675506348e-03 1.7838971542e+00 -3.0898005066e+00 1.7838971542e+00 3.0898005066e+00 
44100 6.7391313901e+00 2.9057229043e-03 1.7838055704e+00 -3.0896418788e+00 1.7838055704e+00 3.0896418788e+00 
44200 6.7391396490e+00 2.5463655995e-03 1.7837241237e+00 -3.0895008090e+00 1.7837241237e+00 3.0895008090e+00 
44300 6.7391482451e+00 2.1899795416e-03 1.7836527464e+00 -3.0893771798e+00 1.7836527464e+00 3.0893771798e+00 
44400 6.7391571140e+00 1.8370504152e-03 1.7835913565e+00 -3.0892708493e+00 1.7835913565e+00 3.0892708493e+00 
44500 6.7391661923e+00 1.4880483606e-03 1.7835398581e+00 -3.0891816515e+00 1.7835398581e+00 3.0891816515e+00 
44600 6.7391754174e+00 1.1434276048e-03 1.7834981421e+00 -3.0891093973e+00 1.7834981421e+00 3.0891093973e+00 
44700 6.7391847285e+00 8.0362612819e-04 1.7834660864e+00 -3.0890538753e+00 1.7834660864e+00 3.0890538753e+00 
44800 6.7391940664e+00 4.6906536750e-04 1.7834435566e+00 -3.0890148524e+00 1.7834435566e+00 3.0890148524e+00 
44900 6.7392033739e+00 1.4014995352e-04 1.7834304060e+00 -3.0889920750e+00 1.7834304060e+00 3.0889920750e+00 
45000 6.7392125962e+00 -1.8273251710e-04 1.7834264768e+00 -3.0889852694e+00 1.7834264768e+00 3.0889852694e+00 
45100 6.7392216811e+00 -4.9921167687e-04 1.7834315999e+00 -3.0889941428e+00 1.7834315999e+00 3.0889941428e+00 
45200 6.7392305791e+00 -8.0893455040e-04 1.7834455957e+00 -3.0890183843e+00 1.7834455957e+00 3.0890183843e+00 
45300 6.7392392438e+00 -1.1115656860e-03 1.7834682748e+00 -3.0890576656e+00 1.7834682748e+00 3.0890576656e+00 
45400 6.7392476319e+00 -1.4067872571e-03 1.7834994379e+00 -3.0891116417e+00 1.7834994379e+00 3.0891116417e+00 
45500 6.7392557033e+00 -1.6942991343e-03 1.7835388770e+00 -3.0891799522e+00 1.7835388770e+00 3.0891799522e+00 
45600 6.7392634215e+00 -1.9738189295e-03 1.7835863754e+00 -3.0892622219e+00 1.7835863754e+00 3.0892622219e+00 
45700 6.7392707535e+00 -2.2450820120e-03 1.7836417086e+00 -3.0893580618e+00 1.7836417086e+00 3.0893580618e+00 
45800 6.7392776697e+00 -2.5078414988e-03 1.7837046443e+00 -3.0894670696e+00 1.7837046443e+00 3.0894670696e+00 
45900 6.7392841442e+00 -2.7618682196e-03 1.7837749434e+00 -3.0895888313e+00 1.7837749434e+00 3.0895888313e+00 
46000 6.7392901549e+00 -3.0069506568e-03 1.7838523604e+00 -3.0897229214e+00 1.7838523604e+00 3.0897229214e+00 
46100 6.7392956831e+00 -3.2428948625e-03 1.7839366435e+00 -3.0898689041e+00 1.7839366435e+00 3.0898689041e+00 
46200 6.7393007138e+00 -3.4695243530e-03 1.7840275359e+00 -3.0900263342e+00 1.7840275359e+00 3.0900263342e+00 
46300 6.7393052356e+00 -3.6866799809e-03 1.7841247753e+00 -3.0901947578e+00 1.7841247753e+00 3.0901947578e+00 
46400 6.7393092406e+00 -3.8942197875e-03 1.7842280953e+00 -3.0903737133e+00 1.7842280953e+00 3.0903737133e+00 
46500 6.7393127243e+00 -4.0920188346e-03 1.7843372254e+00 -3.0905627322e+00 1.7843372254e+00 3.0905627322e+00 
46600 6.7393156853e+00 -4.2799690174e-03 1.7844518915e+00 -3.0907613398e+00 1.7844518915e+00 3.0907613398e+00 
46700 6.7393181257e+00 -4.4579788592e-03 1.7845718168e+00 -3.0909690565e+00 1.7845718168e+00 3.0909690565e+00 
46800 6.7393200506e+00 -4.6259732889e-03 1.7846967216e+00 -3.0911853979e+00 1.7846967216e+00 3.0911853979e+00 
46900 6.7393214677e+00 -4.7838934018e-03 1.7848263242e+00 -3.0914098763e+00 1.7848263242e+00 3.0914098763e+00 
47000 6.7393223879e+00 -4.9316962045e-03 1.7849603416e+00 -3.0916420011e+00 1.7849603416e+00 3.0916420011e+00 
47100 6.7393228243e+00 -5.0693543446e-03 1.7850984892e+00 -3.0918812798e+00 1.7850984892e+00 3.0918812798e+00 
47200 6.7393227926e+00 -5.1968558269e-03 1.7852404820e+00 -3.0921272185e+00 1.7852404820e+00 3.0921272185e+00 
47300 6.7393223108e+00 -5.3142037147e-03 1.7853860345e+00 -3.0923793229e+00 1.7853860345e+00 3.0923793229e+00 
47400 6.7393213986e+00 -5.4214158194e-03 1.7855348616e+00 -3.0926370990e+00 1.7855348616e+00 3.0926370990e+00 
47500 6.7393200779e+00 -5.5185243769e-03 1.7856866787e+00 -3.0929000539e+00 1.7856866787e+00 3.0929000539e+00 
47600 6.7393183720e+00 -5.6055757135e-03 1.7858412020e+00 -3.0931676961e+00 1.7858412020e+00 3.0931676961e+00 
47700 6.7393163057e+00 -5.6826298998e-03 1.7859981493e+00 -3.0934395367e+00 1.7859981493e+00 3.0934395367e+00 
47800 6.7393139050e+00 -5.7497603951e-03 1.7861572400e+00 -3.0937150899e+00 1.7861572400e+00 3.0937150899e+00 
47900 6.7393111970e+00 -5.8070536815e-03 1.7863181957e+00 -3.0939938735e+00 1.7863181957e+00 3.0939938735e+00 
48000 6.7393082095e+00 -5.8546088899e-03 1.7864807407e+00 -3.0942754097e+00 1.7864807407e+00 3.0942754097e+00 
48100 6.7393049710e+00 -5.8925374165e-03 1.7866446020e+00 -3.0945592257e+00 1.7866446020e+00 3.0945592257e+00 
48200 6.7393015105e+00 -5.9209625319e-03 1.7868095096e+00 -3.0948448541e+00 1.7868095096e+00 3.0948448541e+00 
48300 6.7392978570e+00 -5.9400189832e-03 1.7869751975e+00 -3.0951318340e+00 1.7869751975e+00 3.0951318340e+00 
48400 6.7392940400e+00 -5.9498525885e-03 1.7871414033e+00 -3.0954197108e+00 1.7871414033e+00 3.0954197108e+00 
48500 6.7392900883e+00 -5.9506198260e-03 1.7873078687e+00 -3.0957080374e+00 1.7873078687e+00 3.0957080374e+00 
48600 6.7392860310e+00 -5.9424874171e-03 1.7874743401e+00 -3.0959963742e+00 1.7874743401e+00 3.0959963742e+00 
48700 6.7392818963e+00 -5.9256319043e-03 1.7876405685e+00 -3.0962842903e+00 1.7876405685e+00 3.0962842903e+00 
48800 6.7392777121e+00 -5.9002392246e-03 1.7878063099e+00 -3.0965713629e+00 1.7878063099e+00 3.0965713629e+00 
48900 6.7392735053e+00 -5.8665042786e-03 1.7879713259e+00 -3.0968571789e+00 1.7879713259e+00 3.0968571789e+00 
49000 6.7392693022e+00 -5.8246304965e-03 1.7881353831e+00 -3.0971413344e+00 1.7881353831e+00 3.0971413344e+00 
49100 6.7392651280e+00 -5.7748294003e-03 1.7882982544e+00 -3.0974234358e+00 1.7882982544e+00 3.0974234358e+00 
49200 6.7392610066e+00 -5.7173201640e-03 1.7884597184e+00 -3.0977030996e+00 1.7884597184e+00 3.0977030996e+00 
49300 6.7392569610e+00 -5.6523291715e-03 1.7886195600e+00 -3.0979799534e+00 1.7886195600e+00 3.0979799534e+00 
49400 6.7392530126e+00 -5.5800895727e-03 1.7887775705e+00 -3.0982536356e+00 1.7887775705e+00 3.0982536356e+00 
49500 6.7392491818e+00 -5.5008408388e-03 1.7889335477e+00 -3.0985237960e+00 1.7889335477e+00 3.0985237960e+00 
49600 6.7392454871e+00 -5.4148283166e-03 1.7890872963e+00 -3.0987900964e+00 1.7890872963e+00 3.0987900964e+00 
49700 6.7392419458e+00 -5.3223027831e-03 1.7892386278e+00 -3.0990522102e+00 1.7892386278e+00 3.0990522102e+00 
49800 6.7392385735e+00 -5.2235199999e-03 1.7893873608e+00 -3.0993098233e+00 1.7893873608e+00 3.0993098233e+00 
49900 6.7392353844e+00 -5.1187402685e-03 1.7895333211e+00 -3.0995626340e+00 1.7895333211e+00 3.0995626340e+00 
50000 6.7392323909e+00 -5.0082279873e-03 1.7896763419e+00 -3.0998103532e+00 1.7896763419e+00 3.0998103532e+00 
50100 6.7392296038e+00 -4.8922512096e-03 1.7898162636e+00 -3.1000527048e+00 1.7898162636e+00 3.1000527048e+00 
50200 6.7392270323e+00 -4.7710812041e-03 1.7899529345e+00 -3.1002894256e+00 1.7899529345e+00 3.1002894256e+00 
50300 6.7392246841e+00 -4.6449920181e-03 1.7900862100e+00 -3.1005202657e+00 1.7900862100e+00 3.1005202657e+00 
50400 6.7392225651e+00 -4.5142600436e-03 1.7902159537e+00 -3.1007449884e+00 1.7902159537e+00 3.1007449884e+00 
50500 6.7392206797e+00 -4.3791635871e-03 1.7903420367e+00 -3.1009633704e+00 1.7903420367e+00 3.1009633704e+00 
50600 6.7392190306e+00 -4.2399824428e-03 1.7904643377e+00 -3.1011752020e+00 1.7904643377e+00 3.1011752020e+00 
50700 6.7392176194e+00 -4.0969974713e-03 1.7905827435e+00 -3.1013802870e+00 1.7905827435e+00 3.1013802870e+00 
50800 6.7392164457e+00 -3.9504901819e-03 1.7906971488e+00 -3.1015784427e+00 1.7906971488e+00 3.1015784427e+00 
50900 6.7392155081e+00 -3.8007423210e-03 1.7908074558e+00 -3.1017695001e+00 1.7908074558e+00 3.1017695001e+00 
51000 6.7392148037e+00 -3.6480354660e-03 1.7909135750e+00 -3.1019533039e+00 1.7909135750e+00 3.1019533039e+00 
51100 6.7392143282e+00 -3.4926506250e-03 1.7910154244e+00 -3.1021297122e+00 1.7910154244e+00 3.1021297122e+00 
51200 6.7392140763e+00 -3.3348678436e-03 1.7911129301e+00 -3.1022985970e+00 1.7911129301e+00 3.1022985970e+00 
51300 6.7392140415e+00 -3.1749658185e-03 1.7912060257e+00 -3.1024598434e+00 1.7912060257e+00 3.1024598434e+00 
51400 6.7392142161e+00 -3.0132215176e-03 1.7912946529e+00 -3.1026133502e+00 1.7912946529e+00 3.1026133502e+00 
51500 6.7392145917e+00 -2.8499098096e-03 1.7913787610e+00 -3.1027590296e+00 1.7913787610e+00 3.1027590296e+00 
51600 6.7392151588e+00 -2.6853031000e-03 1.7914583067e+00 -3.1028968068e+00 1.7914583067e+00 3.1028968068e+00 
51700 6.7392159071e+00 -2.5196709766e-03 1.7915332546e+00 -3.1030266205e+00 1.7915332546e+00 3.1030266205e+00 
51800 6.7392168258e+00 -2.3532798636e-03 1.7916035767e+00 -3.1031484219e+00 1.7916035767e+00 3.1031484219e+00 
51900 6.7392179033e+00 -2.1863926852e-03 1.7916692524e+00 -3.1032621755e+00 1.7916692524e+00 3.1032621755e+00 
52000 6.7392191274e+00 -2.0192685385e-03 1.7917302682e+00 -3.1033678580e+00 1.7917302682e+00 3.1033678580e+00 
52100 6.7392204858e+00 -1.8521623766e-03 1.7917866182e+00 -3.1034654591e+00 1.7917866182e+00 3.1034654591e+00 
52200 6.7392219655e+00 -1.6853247018e-03 1.7918383033e+00 -3.1035549802e+00 1.7918383033e+00 3.1035549802e+00 
52300 6.7392235534e+00 -1.5190012695e-03 1.7918853313e+00 -3.1036364351e+00 1.7918853313e+00 3.1036364351e+00 
52400 6.7392252363e+00 -1.3534328033e-03 1.7919277170e+00 -3.1037098493e+00 1.7919277170e+00 3.1037098493e+00 
52500 6.7392270007e+00 -1.1888547206e-03 1.7919654818e+00 -3.1037752600e+00 1.7919654818e+00 3.1037752600e+00 
52600 6.7392288334e+00 -1.0254968705e-03 1.7919986538e+00 -3.1038327154e+00 1.7919986538e+00 3.1038327154e+00 
52700 6.7392307211e+00 -8.6358328273e-04 1.7920272670e+00 -3.1038822751e+00 1.7920272670e+00 3.1038822751e+00 
52800 6.7392326505e+00 -7.0333192921e-04 1.7920513622e+00 -3.1039240092e+00 1.7920513622e+00 3.1039240092e+00 
52900 6.7392346089e+00 -5.4495449726e-04 1.7920709859e+00 -3.1039579984e+00 1.7920709859e+00 3.1039579984e+00 
53000 6.7392365836e+00 -3.8865617560e-04 1.7920861906e+00 -3.1039843336e+00 1.7920861906e+00 3.1039843336e+00 
53100 6.7392385624e+00 -2.3463545285e-04 1.7920970343e+00 -3.1040031154e+00 1.7920970343e+00 3.1040031154e+00 
53200 6.7392405334e+00 -8.3083928822e-05 1.7921035807e+00 -3.1040144541e+00 1.7921035807e+00 3.1040144541e+00 
53300 6.7392424853e+00 6.5813861231e-05 1.7921058987e+00 -3.1040184691e+00 1.7921058987e+00 3.1040184691e+00 
53400 6.7392444080e+00 2.1408315738e-04 1.7921058987e+00 -3.1040184691e+00 1.7921058987e+00 3.1040184691e+00 
53500 6.7392462903e+00 3.5709156377e-04 1.7920999258e+00 -3.1040081237e+00 1.7920999258e+00 3.1040081237e+00 
53600 6.7392481229e+00 4.9693920318e-04 1.7920899628e+00 -3.1039908674e+00 1.7920899628e+00 3.1039908674e+00 
53700 6.7392498965e+00 6.3347111481e-04 1.7920760981e+00 -3.1039668529e+00 1.7920760981e+00 3.1039668529e+00 
53800 6.7392516030e+00 7.6654009208e-04 1.7920584239e+00 -3.1039362403e+00 1.7920584239e+00 3.1039362403e+00 
53900 6.7392532347e+00 8.9600677825e-04 1.7920370368e+00 -3.1038991967e+00 1.7920370368e+00 3.1038991967e+00 
54000 6.7392547847e+00 1.0217397486e-03 1.7920120371e+00 -3.1038558961e+00 1.7920120371e+00 3.1038558961e+00 
54100 6.7392562468e+00 1.1436155789e-03 1.7919835291e+00 -3.1038065186e+00 1.7919835291e+00 3.1038065186e+00 
54200 6.7392576157e+00 1.2615189013e-03 1.7919516199e+00 -3.1037512504e+00 1.7919516199e+00 3.1037512504e+00 
54300 6.7392588867e+00 1.3753424457e-03 1.7919164205e+00 -3.1036902832e+00 1.7919164205e+00 3.1036902832e+00 
54400 6.7392600558e+00 1.4849870688e-03 1.7918780443e+00 -3.1036238137e+00 1.7918780443e+00 3.1036238137e+00 
54500 6.7392611200e+00 1.5903617700e-03 1.7918366079e+00 -3.1035520437e+00 1.7918366079e+00 3.1035520437e+00 
54600 6.7392620768e+00 1.6913836934e-03 1.7917922301e+00 -3.1034751791e+00 1.7917922301e+00 3.1034751791e+00 
54700 6.7392629245e+00 1.7879781182e-03 1.7917450322e+00 -3.1033934299e+00 1.7917450322e+00 3.1033934299e+00 
54800 6.7392636622e+00 1.8800784355e-03 1.7916951375e+00 -3.1033070099e+00 1.7916951375e+00 3.1033070099e+00 
54900 6.7392642895e+00 1.9676261131e-03 1.7916426713e+00 -3.1032161357e+00 1.7916426713e+00 3.1032161357e+00 
55000 6.7392648069e+00 2.0505706477e-03 1.7915877604e+00 -3.1031210272e+00 1.7915877604e+00 3.1031210272e+00 
55100 6.7392652154e+00 2.1288695051e-03 1.7915305329e+00 -3.1030219063e+00 1.7915305329e+00 3.1030219063e+00 
55200 6.7392655167e+00 2.2024880492e-03 1.7914711184e+00 -3.1029189974e+00 1.7914711184e+00 3.1029189974e+00 
55300 6.7392657129e+00 2.2713994589e-03 1.7914096473e+00 -3.1028125262e+00 1.7914096473e+00 3.1028125262e+00 
55400 6.7392658069e+00 2.3355846337e-03 1.7913462507e+00 -3.1027027201e+00 1.7913462507e+00 3.1027027201e+00 
55500 6.7392658020e+00 2.3950320893e-03 1.7912810603e+00 -3.1025898071e+00 1.7912810603e+00 3.1025898071e+00 
55600 6.7392657018e+00 2.4497378415e-03 1.7912142082e+00 -3.1024740159e+00 1.7912142082e+00 3.1024740159e+00 
55700 6.7392655107e+00 2.4997052809e-03 1.7911458266e+00 -3.1023555754e+00 1.7911458266e+00 3.1023555754e+00 
55800 6.7392652331e+00 2.5449450371e-03 1.7910760476e+00 -3.1022347146e+00 1.7910760476e+00 3.1022347146e+00 
55900 6.7392648740e+00 2.5854748341e-03 1.7910050029e+00 -3.1021116616e+00 1.7910050029e+00 3.1021116616e+00 
56000 6.7392644387e+00 2.6213193358e-03 1.7909328239e+00 -3.1019866440e+00 1.7909328239e+00 3.1019866440e+00 
56100 6.7392639326e+00 2.6525099837e-03 1.7908596414e+00 -3.1018598880e+00 1.7908596414e+00 3.1018598880e+00 
56200 6.7392633615e+00 2.6790848259e-03 1.7907855850e+00 -3.1017316186e+00 1.7907855850e+00 3.1017316186e+00 
56300 6.7392627314e+00 2.7010883382e-03 1.7907107835e+00 -3.1016020588e+00 1.7907107835e+00 3.1016020588e+00 
56400 6.7392620482e+00 2.7185712384e-03 1.7906353646e+00 -3.1014714294e+00 1.7906353646e+00 3.1014714294e+00 
56500 6.7392613180e+00 2.7315902933e-03 1.7905594544e+00 -3.1013399489e+00 1.7905594544e+00 3.1013399489e+00 
56600 6.7392605472e+00 2.7402081192e-03 1.7904831773e+00 -3.1012078333e+00 1.7904831773e+00 3.1012078333e+00 
56700 6.7392597419e+00 2.7444929763e-03 1.7904066564e+00 -3.1010752951e+00 1.7904066564e+00 3.1010752951e+00 
56800 6.7392589083e+00 2.7445185581e-03 1.7903300126e+00 -3.1009425441e+00 1.7903300126e+00 3.1009425441e+00 
56900 6.7392580525e+00 2.7403637753e-03 1.7902533647e+00 -3.1008097861e+00 1.7902533647e+00 3.1008097861e+00 
57000 6.7392571806e+00 2.7321125352e-03 1.7901768296e+00 -3.1006772234e+00 1.7901768296e+00 3.1006772234e+00 
57100 6.7392562986e+00 2.7198535167e-03 1.7901005217e+00 -3.1005450542e+00 1.7901005217e+00 3.1005450542e+00 
57200 6.7392554121e+00 2.7036799426e-03 1.7900245529e+00 -3.1004134725e+00 1.7900245529e+00 3.1004134725e+00 
57300 6.7392545268e+00 2.6836893471e-03 1.7899490327e+00 -3.1002826676e+00 1.7899490327e+00 3.1002826676e+00 
57400 6.7392536480e+00 2.6599833423e-03 1.7898740677e+00 -3.1001528245e+00 1.7898740677e+00 3.1001528245e+00 
57500 6.7392527808e+00 2.6326673814e-03 1.7897997618e+00 -3.1000241228e+00 1.7897997618e+00 3.1000241228e+00 
57600 6.7392519302e+00 2.6018505201e-03 1.7897262159e+00 -3.0998967375e+00 1.7897262159e+00 3.0998967375e+00 
57700 6.7392511007e+00 2.5676451774e-03 1.7896535279e+00 -3.0997708382e+00 1.7896535279e+00 3.0997708382e+00 
57800 6.7392502965e+00 2.5301668945e-03 1.7895817925e+00 -3.0996465890e+00 1.7895817925e+00 3.0996465890e+00 
57900 6.7392495218e+00 2.4895340941e-03 1.7895111014e+00 -3.0995241484e+00 1.7895111014e+00 3.0995241484e+00 
58000 6.7392487801e+00 2.4458678392e-03 1.7894415428e+00 -3.0994036693e+00 1.7894415428e+00 3.0994036693e+00 
58100 6.7392480748e+00 2.3992915925e-03 1.7893732016e+00 -3.0992852989e+00 1.7893732016e+00 3.0992852989e+00 
58200 6.7392474088e+00 2.3499309765e-03 1.7893061592e+00 -3.0991691781e+00 1.7893061592e+00 3.0991691781e+00 
58300 6.7392467848e+00 2.2979135346e-03 1.7892404936e+00 -3.0990554420e+00 1.7892404936e+00 3.0990554420e+00 
58400 6.7392462050e+00 2.2433684945e-03 1.7891762793e+00 -3.0989442194e+00 1.7891762793e+00 3.0989442194e+00 
58500 6.7392456715e+00 2.1864265325e-03 1.7891135868e+00 -3.0988356329e+00 1.7891135868e+00 3.0988356329e+00 
58600 6.7392451857e+00 2.1272195414e-03 1.7890524836e+00 -3.0987297989e+00 1.7890524836e+00 3.0987297989e+00 
58700 6.7392447490e+00 2.0658803999e-03 1.7889930329e+00 -3.0986268273e+00 1.7889930329e+00 3.0986268273e+00 
58800 6.7392443621e+00 2.0025427457e-03 1.7889352946e+00 -3.0985268216e+00 1.7889352946e+00 3.0985268216e+00 
58900 6.7392440257e+00 1.9373407521e-03 1.7888793246e+00 -3.0984298788e+00 1.7888793246e+00 3.0984298788e+00 
59000 6.7392437401e+00 1.8704089076e-03 1.7888251753e+00 -3.0983360895e+00 1.7888251753e+00 3.0983360895e+00 
59100 6.7392435050e+00 1.8018818000e-03 1.7887728952e+00 -3.0982455377e+00 1.7887728952e+00 3.0982455377e+00 
59200 6.7392433201e+00 1.7318939045e-03 1.7887225290e+00 -3.0981583009e+00 1.7887225290e+00 3.0981583009e+00 
59300 6.7392431848e+00 1.6605793766e-03 1.7886741178e+00 -3.0980744501e+00 1.7886741178e+00 3.0980744501e+00 
59400 6.7392430982e+00 1.5880718493e-03 1.7886276987e+00 -3.0979940499e+00 1.7886276987e+00 3.0979940499e+00 
59500 6.7392430589e+00 1.5145042358e-03 1.7885833053e+00 -3.0979171583e+00 1.7885833053e+00 3.0979171583e+00 
59600 6.7392430656e+00 1.4400085366e-03 1.7885409674e+00 -3.0978438269e+00 1.7885409674e+00 3.0978438269e+00 
59700 6.7392431165e+00 1.3647156534e-03 1.7885007110e+00 -3.0977741008e+00 1.7885007110e+00 3.0977741008e+00 
59800 6.7392432099e+00 1.2887552069e-03 1.7884625586e+00 -3.0977080190e+00 1.7884625586e+00 3.0977080190e+00 
59900 6.7392433436e+00 1.2122553621e-03 1.7884265290e+00 -3.0976456139e+00 1.7884265290e+00 3.0976456139e+00 
60000 6.7392435154e+00 1.1353426579e-03 1.7883926375e+00 -3.0975869120e+00 1.7883926375e+00 3.0975869120e+00 
60100 6.7392437229e+00 1.0581418440e-03 1.7883608956e+00 -3.0975319334e+00 1.7883608956e+00 3.0975319334e+00 
60200 6.7392439637e+00 9.8077572373e-04 1.7883313115e+00 -3.0974806924e+00 1.7883313115e+00 3.0974806924e+00 
60300 6.7392442350e+00 9.0336500263e-04 1.7883038901e+00 -3.0974331970e+00 1.7883038901e+00 3.0974331970e+00 
60400 6.7392445342e+00 8.2602814422e-04 1.7882786325e+00 -3.0973894497e+00 1.7882786325e+00 3.0973894497e+00 
60500 6.7392448586e+00 7.4888123185e-04 1.7882555370e+00 -3.0973494470e+00 1.7882555370e+00 3.0973494470e+00 
60600 6.7392452053e+00 6.7203783726e-04 1.7882345981e+00 -3.0973131798e+00 1.7882345981e+00 3.0973131798e+00 
60700 6.7392455714e+00 5.9560889578e-04 1.7882158076e+00 -3.0972806337e+00 1.7882158076e+00 3.0972806337e+00 
60800 6.7392459541e+00 5.1970258825e-04 1.7881991539e+00 -3.0972517887e+00 1.7881991539e+00 3.0972517887e+00 
60900 6.7392463505e+00 4.4442422958e-04 1.7881846225e+00 -3.0972266195e+00 1.7881846225e+00 3.0972266195e+00 
61000 6.7392467579e+00 3.6987616420e-04 1.7881721958e+00 -3.0972050959e+00 1.7881721958e+00 3.0972050959e+00 
61100 6.7392471733e+00 2.9615766817e-04 1.7881618535e+00 -3.0971871825e+00 1.7881618535e+00 3.0971871825e+00 
61200 6.7392475940e+00 2.2336485804e-04 1.7881535725e+00 -3.0971728393e+00 1.7881535725e+00 3.0971728393e+00 
61300 6.7392480175e+00 1.5159060653e-04 1.7881473268e+00 -3.0971620214e+00 1.7881473268e+00 3.0971620214e+00 
61400 6.7392484410e+00 8.0924464931e-05 1.7881430880e+00 -3.0971546797e+00 1.7881430880e+00 3.0971546797e+00 
61500 6.7392488621e+00 1.1452592104e-05 1.7881408252e+00 -3.0971507604e+00 1.7881408252e+00 3.0971507604e+00 
61600 6.7392492783e+00 -5.6355047735e-05 1.7881408252e+00 -3.0971507604e+00 1.7881408252e+00 3.0971507604e+00 
61700 6.7392496878e+00 -1.2510961287e-04 1.7881408252e+00 -3.0971507604e+00 1.7881408252e+00 3.0971507604e+00 
61800 6.7392500880e+00 -1.9047563061e-04 1.7881443236e+00 -3.0971568197e+00 1.7881443236e+00 3.0971568197e+00 
61900 6.7392504769e+00 -2.5433973724e-04 1.7881496496e+00 -3.0971660447e+00 1.7881496496e+00 3.0971660447e+00 
62000 6.7392508527e+00 -3.1663344473e-04 1.7881567614e+00 -3.0971783627e+00 1.7881567614e+00 3.0971783627e+00 
62100 6.7392512137e+00 -3.7729195205e-04 1.7881656151e+00 -3.0971936977e+00 1.7881656151e+00 3.0971936977e+00 
62200 6.7392515582e+00 -4.3625417068e-04 1.7881761648e+00 -3.0972119703e+00 1.7881761648e+00 3.0972119703e+00 
62300 6.7392518849e+00 -4.9346274408e-04 1.7881883631e+00 -3.0972330984e+00 1.7881883631e+00 3.0972330984e+00 
62400 6.7392521925e+00 -5.4886406117e-04 1.7882021610e+00 -3.0972569970e+00 1.7882021610e+00 3.0972569970e+00 
62500 6.7392524799e+00 -6.0240826388e-04 1.7882175078e+00 -3.0972835785e+00 1.7882175078e+00 3.0972835785e+00 
62600 6.7392527462e+00 -6.5404924901e-04 1.7882343516e+00 -3.0973127529e+00 1.7882343516e+00 3.0973127529e+00 
62700 6.7392529906e+00 -7.0374466435e-04 1.7882526392e+00 -3.0973444279e+00 1.7882526392e+00 3.0973444279e+00 
62800 6.7392532125e+00 -7.5145589944e-04 1.7882723162e+00 -3.0973785094e+00 1.7882723162e+00 3.0973785094e+00 
62900 6.7392534114e+00 -7.9714807080e-04 1.7882933269e+00 -3.0974149010e+00 1.7882933269e+00 3.0974149010e+00 
63000 6.7392535871e+00 -8.4079000202e-04 1.7883156149e+00 -3.0974535049e+00 1.7883156149e+00 3.0974535049e+00 
63100 6.7392537393e+00 -8.8235419872e-04 1.7883391228e+00 -3.0974942218e+00 1.7883391228e+00 3.0974942218e+00 
63200 6.7392538682e+00 -9.2181681856e-04 1.7883637925e+00 -3.0975369510e+00 1.7883637925e+00 3.0975369510e+00 
63300 6.7392539737e+00 -9.5915763649e-04 1.7883895652e+00 -3.0975815907e+00 1.7883895652e+00 3.0975815907e+00 
63400 6.7392540562e+00 -9.9436000526e-04 1.7884163815e+00 -3.0976280379e+00 1.7884163815e+00 3.0976280379e+00 
63500 6.7392541161e+00 -1.0274108115e-03 1.7884441816e+00 -3.0976761890e+00 1.7884441816e+00 3.0976761890e+00 
63600 6.7392541539e+00 -1.0583004275e-03 1.7884729053e+00 -3.0977259399e+00 1.7884729053e+00 3.0977259399e+00 
63700 6.7392541702e+00 -1.0870226587e-03 1.7885024920e+00 -3.0977771857e+00 1.7885024920e+00 3.0977771857e+00 
63800 6.7392541658e+00 -1.1135746874e-03 1.7885328813e+00 -3.0978298214e+00 1.7885328813e+00 3.0978298214e+00 
63900 6.7392541415e+00 -1.1379570120e-03 1.7885640124e+00 -3.0978837420e+00 1.7885640124e+00 3.0978837420e+00 
64000 6.7392540982e+00 -1.1601733836e-03 1.7885958245e+00 -3.0979388422e+00 1.7885958245e+00 3.0979388422e+00 
64100 6.7392540369e+00 -1.1802307380e-03 1.7886282571e+00 -3.0979950172e+00 1.7886282571e+00 3.0979950172e+00 
64200 6.7392539587e+00 -1.1981391250e-03 1.7886612498e+00 -3.0980521622e+00 1.7886612498e+00 3.0980521622e+00 
64300 6.7392538648e+00 -1.2139116346e-03 1.7886947426e+00 -3.0981101733e+00 1.7886947426e+00 3.0981101733e+00 
64400 6.7392537562e+00 -1.2275643192e-03 1.7887286756e+00 -3.0981689470e+00 1.7887286756e+00 3.0981689470e+00 
64500 6.7392536342e+00 -1.2391161143e-03 1.7887629895e+00 -3.0982283806e+00 1.7887629895e+00 3.0982283806e+00 
64600 6.7392535002e+00 -1.2485887558e-03 1.7887976258e+00 -3.0982883723e+00 1.7887976258e+00 3.0982883723e+00 
64700 6.7392533553e+00 -1.2560066947e-03 1.7888325261e+00 -3.0983488214e+00 1.7888325261e+00 3.0983488214e+00 
64800 6.7392532009e+00 -1.2613970094e-03 1.7888676331e+00 -3.0984096285e+00 1.7888676331e+00 3.0984096285e+00 
64900 6.7392530383e+00 -1.2647893166e-03 1.7889028901e+00 -3.0984706954e+00 1.7889028901e+00 3.0984706954e+00 
65000 6.7392528688e+00 -1.2662156794e-03 1.7889382412e+00 -3.0985319253e+00 1.7889382412e+00 3.0985319253e+00 
65100 6.7392526938e+00 -1.2657105136e-03 1.7889736314e+00 -3.0985932230e+00 1.7889736314e+00 3.0985932230e+00 
65200 6.7392525144e+00 -1.2633104927e-03 1.7890090069e+00 -3.0986544951e+00 1.7890090069e+00 3.0986544951e+00 
65300 6.7392523320e+00 -1.2590544513e-03 1.7890443145e+00 -3.0987156498e+00 1.7890443145e+00 3.0987156498e+00 
65400 6.7392521478e+00 -1.2529832869e-03 1.7890795026e+00 -3.0987765972e+00 1.7890795026e+00 3.0987765972e+00 
65500 6.7392519631e+00 -1.2451398607e-03 1.7891145202e+00 -3.0988372496e+00 1.7891145202e+00 3.0988372496e+00 
65600 6.7392517789e+00 -1.2355688977e-03 1.7891493180e+00 -3.0988975211e+00 1.7891493180e+00 3.0988975211e+00 
65700 6.7392515964e+00 -1.2243168851e-03 1.7891838476e+00 -3.0989573281e+00 1.7891838476e+00 3.0989573281e+00 
65800 6.7392514167e+00 -1.2114319709e-03 1.7892180621e+00 -3.0990165894e+00 1.7892180621e+00 3.0990165894e+00 
65900 6.7392512407e+00 -1.1969638612e-03 1.7892519159e+00 -3.0990752259e+00 1.7892519159e+00 3.0990752259e+00 
66000 6.7392510694e+00 -1.1809637178e-03 1.7892853647e+00 -3.0991331609e+00 1.7892853647e+00 3.0991331609e+00 
66100 6.7392509038e+00 -1.1634840551e-03 1.7893183658e+00 -3.0991903205e+00 1.7893183658e+00 3.0991903205e+00 
66200 6.7392507445e+00 -1.1445786370e-03 1.7893508778e+00 -3.0992466330e+00 1.7893508778e+00 3.0992466330e+00 
66300 6.7392505924e+00 -1.1243023739e-03 1.7893828610e+00 -3.0993020294e+00 1.7893828610e+00 3.0993020294e+00 
66400 6.7392504482e+00 -1.1027112196e-03 1.7894142770e+00 -3.0993564436e+00 1.7894142770e+00 3.0993564436e+00 
66500 6.7392503124e+00 -1.0798620694e-03 1.7894450892e+00 -3.0994098118e+00 1.7894450892e+00 3.0994098118e+00 
66600 6.7392501856e+00 -1.0558126574e-03 1.7894752624e+00 -3.0994620733e+00 1.7894752624e+00 3.0994620733e+00 
66700 6.7392500682e+00 -1.0306214559e-03 1.7895047631e+00 -3.0995131700e+00 1.7895047631e+00 3.0995131700e+00 
66800 6.7392499606e+00 -1.0043475738e-03 1.7895335594e+00 -3.0995630468e+00 1.7895335594e+00 3.0995630468e+00 
66900 6.7392498632e+00 -9.7705065767e-04 1.7895616212e+00 -3.0996116512e+00 1.7895616212e+00 3.0996116512e+00 
67000 6.7392497761e+00 -9.4879079248e-04 1.7895889199e+00 -3.0996589339e+00 1.7895889199e+00 3.0996589339e+00 
67100 6.7392496996e+00 -9.1962840412e-04 1.7896154286e+00 -3.0997048483e+00 1.7896154286e+00 3.0997048483e+00 
67200 6.7392496337e+00 -8.8962416299e-04 1.7896411221e+00 -3.0997493508e+00 1.7896411221e+00 3.0997493508e+00 
67300 6.7392495785e+00 -8.5883888893e-04 1.7896659770e+00 -3.0997924007e+00 1.7896659770e+00 3.0997924007e+00 
67400 6.7392495339e+00 -8.2733345768e-04 1.7896899714e+00 -3.0998339603e+00 1.7896899714e+00 3.0998339603e+00 
67500 6.7392494998e+00 -7.9516870887e-04 1.7897130853e+00 -3.0998739948e+00 1.7897130853e+00 3.0998739948e+00 
67600 6.7392494761e+00 -7.6240535576e-04 1.7897353004e+00 -3.0999124723e+00 1.7897353004e+00 3.0999124723e+00 
67700 6.7392494626e+00 -7.2910389668e-04 1.7897565998e+00 -3.0999493640e+00 1.7897565998e+00 3.0999493640e+00 
67800 6.7392494590e+00 -6.9532452848e-04 1.7897769686e+00 -3.0999846439e+00 1.7897769686e+00 3.0999846439e+00 
67900 6.7392494650e+00 -6.6112706181e-04 1.7897963936e+00 -3.1000182889e+00 1.7897963936e+00 3.1000182889e+00 
68000 6.7392494801e+00 -6.2657083863e-04 1.7898148629e+00 -3.1000502787e+00 1.7898148629e+00 3.1000502787e+00 
68100 6.7392495041e+00 -5.9171465173e-04 1.7898323668e+00 -3.1000805962e+00 1.7898323668e+00 3.1000805962e+00 
68200 6.7392495365e+00 -5.5661666657e-04 1.7898488967e+00 -3.1001092269e+00 1.7898488967e+00 3.1001092269e+00 
68300 6.7392495767e+00 -5.2133434543e-04 1.7898644460e+00 -3.1001361591e+00 1.7898644460e+00 3.1001361591e+00 
68400 6.7392496243e+00 -4.8592437388e-04 1.7898790095e+00 -3.1001613838e+00 1.7898790095e+00 3.1001613838e+00 
68500 6.7392496788e+00 -4.5044258976e-04 1.7898925837e+00 -3.1001848951e+00 1.7898925837e+00 3.1001848951e+00 
68600 6.7392497396e+00 -4.1494391467e-04 1.7899051667e+00 -3.1002066894e+00 1.7899051667e+00 3.1002066894e+00 
68700 6.7392498061e+00 -3.7948228799e-04 1.7899167579e+00 -3.1002267661e+00 1.7899167579e+00 3.1002267661e+00 
68800 6.7392498777e+00 -3.4411060357e-04 1.7899273585e+00 -3.1002451268e+00 1.7899273585e+00 3.1002451268e+00 
68900 6.7392499538e+00 -3.0888064906e-04 1.7899369709e+00 -3.1002617760e+00 1.7899369709e+00 3.1002617760e+00 
69000 6.7392500339e+00 -2.7384304804e-04 1.7899455992e+00 -3.1002767206e+00 1.7899455992e+00 3.1002767206e+00 
69100 6.7392501174e+00 -2.3904720477e-04 1.7899532487e+00 -3.1002899699e+00 1.7899532487e+00 3.1002899699e+00 
69200 6.7392502036e+00 -2.0454125186e-04 1.7899599261e+00 -3.1003015356e+00 1.7899599261e+00 3.1003015356e+00 
69300 6.7392502919e+00 -1.7037200076e-04 1.7899656397e+00 -3.1003114318e+00 1.7899656397e+00 3.1003114318e+00 
69400 6.7392503817e+00 -1.3658489502e-04 1.7899703988e+00 -3.1003196748e+00 1.7899703988e+00 3.1003196748e+00 
69500 6.7392504726e+00 -1.0322396650e-04 1.7899742141e+00 -3.1003262830e+00 1.7899742141e+00 3.1003262830e+00 
69600 6.7392505638e+00 -7.0331794492e-05 1.7899770975e+00 -3.1003312772e+00 1.7899770975e+00 3.1003312772e+00 
69700 6.7392506550e+00 -4.0316139049e-05 1.7899770975e+00 -3.1003312772e+00 1.7899770975e+00 3.1003312772e+00 
69800 6.7392507453e+00 -9.7774699774e-06 1.7899770975e+00 -3.1003312772e+00 1.7899770975e+00 3.1003312772e+00 
69900 6.7392508344e+00 2.1234363073e-05 1.7899770975e+00 -3.1003312772e+00 1.7899770975e+00 3.1003312772e+00 
70000 6.7392509220e+00 5.2670366915e-05 1.7899770975e+00 -3.1003312772e+00 1.7899770975e+00 3.1003312772e+00 
70100 6.7392510077e+00 8.4482433332e-05 1.7899770975e+00 -3.1003312772e+00 1.7899770975e+00 3.1003312772e+00 
70200 6.7392510908e+00 1.1378015135e-04 1.7899747376e+00 -3.1003271898e+00 1.7899747376e+00 3.1003271898e+00 
70300 6.7392511711e+00 1.4235367950e-04 1.7899715594e+00 -3.1003216849e+00 1.7899715594e+00 3.1003216849e+00 
70400 6.7392512481e+00 1.7017325558e-04 1.7899675829e+00 -3.1003147975e+00 1.7899675829e+00 3.1003147975e+00 
70500 6.7392513216e+00 1.9721080275e-04 1.7899628294e+00 -3.1003065642e+00 1.7899628294e+00 3.1003065642e+00 
70600 6.7392513912e+00 2.2343994163e-04 1.7899573206e+00 -3.1002970227e+00 1.7899573206e+00 3.1002970227e+00 
70700 6.7392514568e+00 2.4883599971e-04 1.7899510791e+00 -3.1002862121e+00 1.7899510791e+00 3.1002862121e+00 
70800 6.7392515180e+00 2.7337601790e-04 1.7899441282e+00 -3.1002741728e+00 1.7899441282e+00 3.1002741728e+00 
70900 6.7392515747e+00 2.9703875434e-04 1.7899364918e+00 -3.1002609461e+00 1.7899364918e+00 3.1002609461e+00 
71000 6.7392516267e+00 3.1980468561e-04 1.7899281943e+00 -3.1002465745e+00 1.7899281943e+00 3.1002465745e+00 
71100 6.7392516740e+00 3.4165600519e-04 1.7899192609e+00 -3.1002311013e+00 1.7899192609e+00 3.1002311013e+00 
71200 6.7392517164e+00 3.6257661936e-04 1.7899097170e+00 -3.1002145708e+00 1.7899097170e+00 3.1002145708e+00 
71300 6.7392517538e+00 3.8255214059e-04 1.7898995887e+00 -3.1001970280e+00 1.7898995887e+00 3.1001970280e+00 
71400 6.7392517863e+00 4.0156987835e-04 1.7898889022e+00 -3.1001785186e+00 1.7898889022e+00 3.1001785186e+00 
71500 6.7392518138e+00 4.1961882756e-04 1.7898776845e+00 -3.1001590889e+00 1.7898776845e+00 3.1001590889e+00 
71600 6.7392518363e+00 4.3668965468e-04 1.7898659625e+00 -3.1001387859e+00 1.7898659625e+00 3.1001387859e+00 
71700 6.7392518540e+00 4.5277468134e-04 1.7898537636e+00 -3.1001176567e+00 1.7898537636e+00 3.1001176567e+00 
71800 6.7392518670e+00 4.6786786591e-04 1.7898411153e+00 -3.1000957491e+00 1.7898411153e+00 3.1000957491e+00 
71900 6.7392518752e+00 4.8196478281e-04 1.7898280452e+00 -3.1000731111e+00 1.7898280452e+00 3.1000731111e+00 
72000 6.7392518790e+00 4.9506259968e-04 1.7898145812e+00 -3.1000497908e+00 1.7898145812e+00 3.1000497908e+00 
72100 6.7392518783e+00 5.0716005252e-04 1.7898007512e+00 -3.1000258365e+00 1.7898007512e+00 3.1000258365e+00 
72200 6.7392518735e+00 5.1825741898e-04 1.7897865832e+00 -3.1000012968e+00 1.7897865832e+00 3.1000012968e+00 
72300 6.7392518647e+00 5.2835648960e-04 1.7897721050e+00 -3.0999762198e+00 1.7897721050e+00 3.0999762198e+00 
72400 6.7392518522e+00 5.3746053736e-04 1.7897573446e+00 -3.0999506540e+00 1.7897573446e+00 3.0999506540e+00 
72500 6.7392518360e+00 5.4557428548e-04 1.7897423297e+00 -3.0999246475e+00 1.7897423297e+00 3.0999246475e+00 
72600 6.7392518166e+00 5.5270387354e-04 1.7897270880e+00 -3.0998982481e+00 1.7897270880e+00 3.0998982481e+00 
72700 6.7392517941e+00 5.5885682206e-04 1.7897116470e+00 -3.0998715036e+00 1.7897116470e+00 3.0998715036e+00 
72800 6.7392517689e+00 5.6404199565e-04 1.7896960340e+00 -3.0998444610e+00 1.7896960340e+00 3.0998444610e+00 
72900 6.7392517411e+00 5.6826956467e-04 1.7896802760e+00 -3.0998171673e+00 1.7896802760e+00 3.0998171673e+00 
73000 6.7392517110e+00 5.7155096564e-04 1.7896643997e+00 -3.0997896689e+00 1.7896643997e+00 3.0997896689e+00 
73100 6.7392516790e+00 5.7389886045e-04 1.7896484317e+00 -3.0997620113e+00 1.7896484317e+00 3.0997620113e+00 
73200 6.7392516453e+00 5.7532709436e-04 1.7896323978e+00 -3.0997342399e+00 1.7896323978e+00 3.0997342399e+00 
73300 6.7392516102e+00 5.7585065302e-04 1.7896163240e+00 -3.0997063992e+00 1.7896163240e+00 3.0997063992e+00 
73400 6.7392515739e+00 5.7548561849e-04 1.7896002353e+00 -3.0996785328e+00 1.7896002353e+00 3.0996785328e+00 
73500 6.7392515368e+00 5.7424912439e-04 1.7895841568e+00 -3.0996506839e+00 1.7895841568e+00 3.0996506839e+00 
73600 6.7392514991e+00 5.7215931026e-04 1.7895681126e+00 -3.0996228946e+00 1.7895681126e+00 3.0996228946e+00 
73700 6.7392514610e+00 5.6923527518e-04 1.7895521266e+00 -3.0995952061e+00 1.7895521266e+00 3.0995952061e+00 
73800 6.7392514229e+00 5.6549703090e-04 1.7895362223e+00 -3.0995676589e+00 1.7895362223e+00 3.0995676589e+00 
73900 6.7392513849e+00 5.6096545422e-04 1.7895204222e+00 -3.0995402924e+00 1.7895204222e+00 3.0995402924e+00 
74000 6.7392513473e+00 5.5566223915e-04 1.7895047486e+00 -3.0995131449e+00 1.7895047486e+00 3.0995131449e+00 
74100 6.7392513103e+00 5.4960984852e-04 1.7894892230e+00 -3.0994862538e+00 1.7894892230e+00 3.0994862538e+00 
74200 6.7392512742e+00 5.4283146546e-04 1.7894738664e+00 -3.0994596555e+00 1.7894738664e+00 3.0994596555e+00 
74300 6.7392512391e+00 5.3535094451e-04 1.7894586991e+00 -3.0994333849e+00 1.7894586991e+00 3.0994333849e+00 
74400 6.7392512052e+00 5.2719276277e-04 1.7894437407e+00 -3.0994074761e+00 1.7894437407e+00 3.0994074761e+00 
74500 6.7392511726e+00 5.1838197093e-04 1.7894290100e+00 -3.0993819619e+00 1.7894290100e+00 3.0993819619e+00 
74600 6.7392511417e+00 5.0894414430e-04 1.7894145255e+00 -3.0993568740e+00 1.7894145255e+00 3.0993568740e+00 
74700 6.7392511124e+00 4.9890533406e-04 1.7894003045e+00 -3.0993322426e+00 1.7894003045e+00 3.0993322426e+00 
74800 6.7392510849e+00 4.8829201855e-04 1.7893863640e+00 -3.0993080968e+00 1.7893863640e+00 3.0993080968e+00 
74900 6.7392510593e+00 4.7713105495e-04 1.7893727199e+00 -3.0992844645e+00 1.7893727199e+00 3.0992844645e+00 
75000 6.7392510357e+00 4.6544963122e-04 1.7893593876e+00 -3.0992613722e+00 1.7893593876e+00 3.0992613722e+00 
75100 6.7392510142e+00 4.5327521842e-04 1.7893463815e+00 -3.0992388451e+00 1.7893463815e+00 3.0992388451e+00 
75200 6.7392509949e+00 4.4063552357e-04 1.7893337156e+00 -3.0992169071e+00 1.7893337156e+00 3.0992169071e+00 
75300 6.7392509777e+00 4.2755844294e-04 1.7893214028e+00 -3.0991955807e+00 1.7893214028e+00 3.0991955807e+00 
75400 6.7392509628e+00 4.1407201601e-04 1.7893094553e+00 -3.0991748870e+00 1.7893094553e+00 3.0991748870e+00 
75500 6.7392509502e+00 4.0020438006e-04 1.7892978846e+00 -3.0991548460e+00 1.7892978846e+00 3.0991548460e+00 
75600 6.7392509397e+00 3.8598372541e-04 1.7892867013e+00 -3.0991354760e+00 1.7892867013e+00 3.0991354760e+00 
75700 6.7392509316e+00 3.7143825153e-04 1.7892759154e+00 -3.0991167941e+00 1.7892759154e+00 3.0991167941e+00 
75800 6.7392509256e+00 3.5659612387e-04 1.7892655358e+00 -3.0990988162e+00 1.7892655358e+00 3.0990988162e+00 
75900 6.7392509219e+00 3.4148543163e-04 1.7892555709e+00 -3.0990815566e+00 1.7892555709e+00 3.0990815566e+00 
76000 6.7392509202e+00 3.2613414640e-04 1.7892460283e+00 -3.0990650282e+00 1.7892460283e+00 3.0990650282e+00 
76100 6.7392509207e+00 3.1057008180e-04 1.7892369145e+00 -3.0990492428e+00 1.7892369145e+00 3.0990492428e+00 
76200 6.7392509231e+00 2.9482085410e-04 1.7892282357e+00 -3.0990342106e+00 1.7892282357e+00 3.0990342106e+00 
76300 6.7392509275e+00 2.7891384391e-04 1.7892199969e+00 -3.0990199406e+00 1.7892199969e+00 3.0990199406e+00 
76400 6.7392509337e+00 2.6287615895e-04 1.7892122027e+00 -3.0990064405e+00 1.7892122027e+00 3.0990064405e+00 
76500 6.7392509416e+00 2.4673459792e-04 1.7892048565e+00 -3.0989937167e+00 1.7892048565e+00 3.0989937167e+00 
76600 6.7392509512e+00 2.3051561559e-04 1.7891979614e+00 -3.0989817740e+00 1.7891979614e+00 3.0989817740e+00 
76700 6.7392509623e+00 2.1424528905e-04 1.7891915196e+00 -3.0989706164e+00 1.7891915196e+00 3.0989706164e+00 
76800 6.7392509749e+00 1.9794928510e-04 1.7891855324e+00 -3.0989602462e+00 1.7891855324e+00 3.0989602462e+00 
76900 6.7392509887e+00 1.8165282905e-04 1.7891800005e+00 -3.0989506648e+00 1.7891800005e+00 3.0989506648e+00 
77000 6.7392510037e+00 1.6538067463e-04 1.7891749241e+00 -3.0989418722e+00 1.7891749241e+00 3.0989418722e+00 
77100 6.7392510198e+00 1.4915707529e-04 1.7891703024e+00 -3.0989338672e+00 1.7891703024e+00 3.0989338672e+00 
77200 6.7392510368e+00 1.3300575675e-04 1.7891661341e+00 -3.0989266474e+00 1.7891661341e+00 3.0989266474e+00 
77300 6.7392510546e+00 1.1694989095e-04 1.7891624171e+00 -3.0989202094e+00 1.7891624171e+00 3.0989202094e+00 
77400 6.7392510730e+00 1.0101207121e-04 1.7891591488e+00 -3.0989145486e+00 1.7891591488e+00 3.0989145486e+00 
77500 6.7392510920e+00 8.5214288918e-05 1.7891563259e+00 -3.0989096592e+00 1.7891563259e+00 3.0989096592e+00 
77600 6.7392511114e+00 6.9577911408e-05 1.7891539445e+00 -3.0989055345e+00 1.7891539445e+00 3.0989055345e+00 
77700 6.7392511312e+00 5.6470245644e-05 1.7891539445e+00 -3.0989055345e+00 1.7891539445e+00 3.0989055345e+00 
77800 6.7392511511e+00 4.3060484364e-05 1.7891539445e+00 -3.0989055345e+00 1.7891539445e+00 3.0989055345e+00 
77900 6.7392511709e+00 2.9372386155e-05 1.7891539445e+00 -3.0989055345e+00 1.7891539445e+00 3.0989055345e+00 
78000 6.7392511907e+00 1.5429357278e-05 1.7891539445e+00 -3.0989055345e+00 1.7891539445e+00 3.0989055345e+00 
78100 6.7392512102e+00 1.2544365039e-06 1.7891539445e+00 -3.0989055345e+00 1.7891539445e+00 3.0989055345e+00 
78200 6.7392512294e+00 -1.3129719281e-05 1.7891539445e+00 -3.0989055345e+00 1.7891539445e+00 3.0989055345e+00 
78300 6.7392512483e+00 -2.7700848755e-05 1.7891539445e+00 -3.0989055345e+00 1.7891539445e+00 3.0989055345e+00 
78400 6.7392512668e+00 -4.2437099115e-05 1.7891539445e+00 -3.0989055345e+00 1.7891539445e+00 3.0989055345e+00 
78500 6.7392512848e+00 -5.7317038284e-05 1.7891539445e+00 -3.0989055345e+00 1.7891539445e+00 3.0989055345e+00 
78600 6.7392513023e+00 -7.2319666436e-05 1.7891539445e+00 -3.0989055345e+00 1.7891539445e+00 3.0989055345e+00 
78700 6.7392513190e+00 -8.4985671381e-05 1.7891559656e+00 -3.0989090351e+00 1.7891559656e+00 3.0989090351e+00 
78800 6.7392513349e+00 -9.7289016143e-05 1.7891583406e+00 -3.0989131487e+00 1.7891583406e+00 3.0989131487e+00 
78900 6.7392513500e+00 -1.0921784842e-04 1.7891610595e+00 -3.0989178579e+00 1.7891610595e+00 3.0989178579e+00 
79000 6.7392513642e+00 -1.2076110222e-04 1.7891641117e+00 -3.0989231445e+00 1.7891641117e+00 3.0989231445e+00 
79100 6.7392513774e+00 -1.3190849999e-04 1.7891674865e+00 -3.0989289898e+00 1.7891674865e+00 3.0989289898e+00 
79200 6.7392513897e+00 -1.4265055348e-04 1.7891711728e+00 -3.0989353747e+00 1.7891711728e+00 3.0989353747e+00 
79300 6.7392514010e+00 -1.5297856338e-04 1.7891751593e+00 -3.0989422795e+00 1.7891751593e+00 3.0989422795e+00 
79400 6.7392514113e+00 -1.6288461777e-04 1.7891794344e+00 -3.0989496842e+00 1.7891794344e+00 3.0989496842e+00 
79500 6.7392514206e+00 -1.7236158947e-04 1.7891839863e+00 -3.0989575684e+00 1.7891839863e+00 3.0989575684e+00 
79600 6.7392514287e+00 -1.8140313212e-04 1.7891888031e+00 -3.0989659113e+00 1.7891888031e+00 3.0989659113e+00 
79700 6.7392514359e+00 -1.9000367531e-04 1.7891938725e+00 -3.0989746918e+00 1.7891938725e+00 3.0989746918e+00 
79800 6.7392514420e+00 -1.9815841847e-04 1.7891991823e+00 -3.0989838886e+00 1.7891991823e+00 3.0989838886e+00 
79900 6.7392514470e+00 -2.0586332387e-04 1.7892047199e+00 -3.0989934800e+00 1.7892047199e+00 3.0989934800e+00 
80000 6.7392514510e+00 -2.1311510845e-04 1.7892104728e+00 -3.0990034444e+00 1.7892104728e+00 3.0990034444e+00 
80100 6.7392514540e+00 -2.1991123474e-04 1.7892164284e+00 -3.0990137597e+00 1.7892164284e+00 3.0990137597e+00 
80200 6.7392514560e+00 -2.2624990088e-04 1.7892225739e+00 -3.0990244040e+00 1.7892225739e+00 3.0990244040e+00 
80300 6.7392514571e+00 -2.3213002954e-04 1.7892288965e+00 -3.0990353550e+00 1.7892288965e+00 3.0990353550e+00 
80400 6.7392514572e+00 -2.3755125616e-04 1.7892353833e+00 -3.0990465906e+00 1.7892353833e+00 3.0990465906e+00 
80500 6.7392514565e+00 -2.4251391620e-04 1.7892420217e+00 -3.0990580886e+00 1.7892420217e+00 3.0990580886e+00 
80600 6.7392514549e+00 -2.4701903159e-04 1.7892487987e+00 -3.0990698267e+00 1.7892487987e+00 3.0990698267e+00 
80700 6.7392514525e+00 -2.5106829648e-04 1.7892557016e+00 -3.0990817828e+00 1.7892557016e+00 3.0990817828e+00 
80800 6.7392514494e+00 -2.5466406213e-04 1.7892627176e+00 -3.0990939349e+00 1.7892627176e+00 3.0990939349e+00 
80900 6.7392514456e+00 -2.5780932116e-04 1.7892698340e+00 -3.0991062610e+00 1.7892698340e+00 3.0991062610e+00 
81000 6.7392514412e+00 -2.6050769114e-04 1.7892770383e+00 -3.0991187392e+00 1.7892770383e+00 3.0991187392e+00 
81100 6.7392514362e+00 -2.6276339746e-04 1.7892843180e+00 -3.0991313480e+00 1.7892843180e+00 3.0991313480e+00 
81200 6.7392514306e+00 -2.6458125574e-04 1.7892916607e+00 -3.0991440660e+00 1.7892916607e+00 3.0991440660e+00 
81300 6.7392514246e+00 -2.6596665352e-04 1.7892990542e+00 -3.0991568718e+00 1.7892990542e+00 3.0991568718e+00 
81400 6.7392514182e+00 -2.6692553157e-04 1.7893064864e+00 -3.0991697447e+00 1.7893064864e+00 3.0991697447e+00 
81500 6.7392514114e+00 -2.6746436465e-04 1.7893139453e+00 -3.0991826639e+00 1.7893139453e+00 3.0991826639e+00 
81600 6.7392514044e+00 -2.6759014177e-04 1.7893214192e+00 -3.0991956091e+00 1.7893214192e+00 3.0991956091e+00 
81700 6.7392513971e+00 -2.6731034618e-04 1.7893288966e+00 -3.0992085604e+00 1.7893288966e+00 3.0992085604e+00 
81800 6.7392513896e+00 -2.6663293488e-04 1.7893363662e+00 -3.0992214981e+00 1.7893363662e+00 3.0992214981e+00 
81900 6.7392513820e+00 -2.6556631782e-04 1.7893438168e+00 -3.0992344030e+00 1.7893438168e+00 3.0992344030e+00 
82000 6.7392513744e+00 -2.6411933681e-04 1.7893512376e+00 -3.0992472561e+00 1.7893512376e+00 3.0992472561e+00 
82100 6.7392513667e+00 -2.6230124421e-04 1.7893586179e+00 -3.0992600392e+00 1.7893586179e+00 3.0992600392e+00 
82200 6.7392513591e+00 -2.6012168131e-04 1.7893659474e+00 -3.0992727342e+00 1.7893659474e+00 3.0992727342e+00 
82300 6.7392513516e+00 -2.5759065661e-04 1.7893732160e+00 -3.0992853237e+00 1.7893732160e+00 3.0992853237e+00 
82400 6.7392513442e+00 -2.5471852393e-04 1.7893804137e+00 -3.0992977907e+00 1.7893804137e+00 3.0992977907e+00 
82500 6.7392513369e+00 -2.5151596034e-04 1.7893875313e+00 -3.0993101186e+00 1.7893875313e+00 3.0993101186e+00 
82600 6.7392513299e+00 -2.4799394412e-04 1.7893945593e+00 -3.0993222914e+00 1.7893945593e+00 3.0993222914e+00 
82700 6.7392513232e+00 -2.4416373258e-04 1.7894014888e+00 -3.0993342938e+00 1.7894014888e+00 3.0993342938e+00 
82800 6.7392513168e+00 -2.4003683995e-04 1.7894083113e+00 -3.0993461107e+00 1.7894083113e+00 3.0993461107e+00 
82900 6.7392513107e+00 -2.3562501518e-04 1.7894150185e+00 -3.0993577278e+00 1.7894150185e+00 3.0993577278e+00 
83000 6.7392513049e+00 -2.3094021995e-04 1.7894216023e+00 -3.0993691314e+00 1.7894216023e+00 3.0993691314e+00 
83100 6.7392512995e+00 -2.2599460662e-04 1.7894280553e+00 -3.0993803082e+00 1.7894280553e+00 3.0993803082e+00 
83200 6.7392512946e+00 -2.2080049640e-04 1.7894343700e+00 -3.0993912456e+00 1.7894343700e+00 3.0993912456e+00 
83300 6.7392512900e+00 -2.1537035761e-04 1.7894405395e+00 -3.0994019316e+00 1.7894405395e+00 3.0994019316e+00 
83400 6.7392512859e+00 -2.0971678415e-04 1.7894465574e+00 -3.0994123548e+00 1.7894465574e+00 3.0994123548e+00 
83500 6.7392512822e+00 -2.0385247417e-04 1.7894524172e+00 -3.0994225043e+00 1.7894524172e+00 3.0994225043e+00 
83600 6.7392512790e+00 -1.9779020894e-04 1.7894581131e+00 -3.0994323700e+00 1.7894581131e+00 3.0994323700e+00 
83700 6.7392512763e+00 -1.9154283208e-04 1.7894636397e+00 -3.0994419422e+00 1.7894636397e+00 3.0994419422e+00 
83800 6.7392512741e+00 -1.8512322896e-04 1.7894689916e+00 -3.0994512121e+00 1.7894689916e+00 3.0994512121e+00 
83900 6.7392512723e+00 -1.7854430651e-04 1.7894741642e+00 -3.0994601713e+00 1.7894741642e+00 3.0994601713e+00 
84000 6.7392512710e+00 -1.7181897329e-04 1.7894791530e+00 -3.0994688120e+00 1.7894791530e+00 3.0994688120e+00 
84100 6.7392512701e+00 -1.6496012001e-04 1.7894839538e+00 -3.0994771273e+00 1.7894839538e+00 3.0994771273e+00 
84200 6.7392512697e+00 -1.5798060036e-04 1.7894885629e+00 -3.0994851106e+00 1.7894885629e+00 3.0994851106e+00 
84300 6.7392512697e+00 -1.5089321228e-04 1.7894929771e+00 -3.0994927560e+00 1.7894929771e+00 3.0994927560e+00 
84400 6.7392512702e+00 -1.4371067969e-04 1.7894971931e+00 -3.0995000585e+00 1.7894971931e+00 3.0995000585e+00 
84500 6.7392512711e+00 -1.3644563458e-04 1.7895012085e+00 -3.0995070134e+00 1.7895012085e+00 3.0995070134e+00 
84600 6.7392512724e+00 -1.2911059966e-04 1.7895050209e+00 -3.0995136167e+00 1.7895050209e+00 3.0995136167e+00 
84700 6.7392512741e+00 -1.2171797145e-04 1.7895086284e+00 -3.0995198649e+00 1.7895086284e+00 3.0995198649e+00 
84800 6.7392512761e+00 -1.1428000386e-04 1.7895120293e+00 -3.0995257554e+00 1.7895120293e+00 3.0995257554e+00 
84900 6.7392512785e+00 -1.0680879232e-04 1.7895152223e+00 -3.0995312859e+00 1.7895152223e+00 3.0995312859e+00 
85000 6.7392512812e+00 -9.9316258407e-05 1.7895182066e+00 -3.0995364549e+00 1.7895182066e+00 3.0995364549e+00 
85100 6.7392512841e+00 -9.1814135059e-05 1.7895209815e+00 -3.0995412612e+00 1.7895209815e+00 3.0995412612e+00 
85200 6.7392512874e+00 -8.4313952289e-05 1.7895235469e+00 -3.0995457045e+00 1.7895235469e+00 3.0995457045e+00 
85300 6.7392512909e+00 -7.6827023513e-05 1.7895259026e+00 -3.0995497848e+00 1.7895259026e+00 3.0995497848e+00 
85400 6.7392512945e+00 -6.9364432447e-05 1.7895280492e+00 -3.0995535028e+00 1.7895280492e+00 3.0995535028e+00 
85500 6.7392512985e+00 -6.4273842822e-05 1.7895280492e+00 -3.0995535028e+00 1.7895280492e+00 3.0995535028e+00 
85600 6.7392513027e+00 -5.8995731460e-05 1.7895280492e+00 -3.0995535028e+00 1.7895280492e+00 3.0995535028e+00 
85700 6.7392513069e+00 -5.3541463834e-05 1.7895280492e+00 -3.0995535028e+00 1.7895280492e+00 3.0995535028e+00 
85800 6.7392513111e+00 -4.7922282441e-05 1.7895280492e+00 -3.0995535028e+00 1.7895280492e+00 3.0995535028e+00 
85900 6.7392513154e+00 -4.2149298494e-05 1.7895280492e+00 -3.0995535028e+00 1.7895280492e+00 3.0995535028e+00 
86000 6.7392513197e+00 -3.6233483932e-05 1.7895280492e+00 -3.0995535028e+00 1.7895280492e+00 3.0995535028e+00 
86100 6.7392513241e+00 -3.0185663753e-05 1.7895280492e+00 -3.0995535028e+00 1.7895280492e+00 3.0995535028e+00 
86200 6.7392513284e+00 -2.4016508676e-05 1.7895280492e+00 -3.0995535028e+00 1.7895280492e+00 3.0995535028e+00 
86300 6.7392513327e+00 -1.7736528119e-05 1.7895280492e+00 -3.0995535028e+00 1.7895280492e+00 3.0995535028e+00 
86400 6.7392513369e+00 -1.1356063518e-05 1.7895280492e+00 -3.0995535028e+00 1.7895280492e+00 3.0995535028e+00 
86500 6.7392513410e+00 -4.8852819619e-06 1.7895280492e+00 -3.0995535028e+00 1.7895280492e+00 3.0995535028e+00 
86600 6.7392513451e+00 1.6658298713e-06 1.7895280492e+00 -3.0995535028e+00 1.7895280492e+00 3.0995535028e+00 
86700 6.7392513491e+00 8.2874714133e-06 1.7895280492e+00 -3.0995535028e+00 1.7895280492e+00 3.0995535028e+00 
86800 6.7392513530e+00 1.4970033626e-05 1.7895280492e+00 -3.0995535028e+00 1.7895280492e+00 3.0995535028e+00 
86900 6.7392513567e+00 2.1704104074e-05 1.7895280492e+00 -3.0995535028e+00 1.7895280492e+00 3.0995535028e+00 
87000 6.7392513604e+00 2.8480471699e-05 1.7895280492e+00 -3.0995535028e+00 1.7895280492e+00 3.0995535028e+00 
87100 6.7392513639e+00 3.5290131273e-05 1.7895280492e+00 -3.0995535028e+00 1.7895280492e+00 3.0995535028e+00 
87200 6.7392513672e+00 4.2124287542e-05 1.7895280492e+00 -3.0995535028e+00 1.7895280492e+00 3.0995535028e+00 
87300 6.7392513704e+00 4.8974359057e-05 1.7895280492e+00 -3.0995535028e+00 1.7895280492e+00 3.0995535028e+00 
87400 6.7392513735e+00 5.5831981702e-05 1.7895280492e+00 -3.0995535028e+00 1.7895280492e+00 3.0995535028e+00 
87500 6.7392513764e+00 6.2689011913e-05 1.7895280492e+00 -3.0995535028e+00 1.7895280492e+00 3.0995535028e+00 
87600 6.7392513791e+00 6.9537529611e-05 1.7895280492e+00 -3.0995535028e+00 1.7895280492e+00 3.0995535028e+00 
87700 6.7392513817e+00 7.6369840823e-05 1.7895280492e+00 -3.0995535028e+00 1.7895280492e+00 3.0995535028e+00 
87800 6.7392513838e+00 8.0605339861e-05 1.7895259154e+00 -3.0995498070e+00 1.7895259154e+00 3.0995498070e+00 
87900 6.7392513858e+00 8.4648560719e-05 1.7895236633e+00 -3.0995459061e+00 1.7895236633e+00 3.0995459061e+00 
88000 6.7392513875e+00 8.8496495207e-05 1.7895212982e+00 -3.0995418096e+00 1.7895212982e+00 3.0995418096e+00 
88100 6.7392513890e+00 9.2146508181e-05 1.7895188255e+00 -3.0995375269e+00 1.7895188255e+00 3.0995375269e+00 
88200 6.7392513903e+00 9.5596333653e-05 1.7895162509e+00 -3.0995330675e+00 1.7895162509e+00 3.0995330675e+00 
88300 6.7392513913e+00 9.8844070469e-05 1.7895135799e+00 -3.0995284412e+00 1.7895135799e+00 3.0995284412e+00 
88400 6.7392513922e+00 1.0188817759e-04 1.7895108181e+00 -3.0995236577e+00 1.7895108181e+00 3.0995236577e+00 
88500 6.7392513928e+00 1.0472746887e-04 1.7895079713e+00 -3.0995187269e+00 1.7895079713e+00 3.0995187269e+00 
88600 6.7392513932e+00 1.0736110755e-04 1.7895050452e+00 -3.0995136586e+00 1.7895050452e+00 3.0995136586e+00 
88700 6.7392513935e+00 1.0978860018e-04 1.7895020454e+00 -3.0995084629e+00 1.7895020454e+00 3.0995084629e+00 
88800 6.7392513935e+00 1.1200979040e-04 1.7894989779e+00 -3.0995031497e+00 1.7894989779e+00 3.0995031497e+00 
88900 6.7392513934e+00 1.1402485211e-04 1.7894958482e+00 -3.0994977291e+00 1.7894958482e+00 3.0994977291e+00 
89000 6.7392513931e+00 1.1583428249e-04 1.7894926623e+00 -3.0994922108e+00 1.7894926623e+00 3.0994922108e+00 
89100 6.7392513926e+00 1.1743889456e-04 1.7894894258e+00 -3.0994866050e+00 1.7894894258e+00 3.0994866050e+00 
89200 6.7392513920e+00 1.1883980952e-04 1.7894861444e+00 -3.0994809216e+00 1.7894861444e+00 3.0994809216e+00 
89300 6.7392513912e+00 1.2003844871e-04 1.7894828239e+00 -3.0994751703e+00 1.7894828239e+00 3.0994751703e+00 
89400 6.7392513903e+00 1.2103652534e-04 1.7894794699e+00 -3.0994693610e+00 1.7894794699e+00 3.0994693610e+00 
89500 6.7392513893e+00 1.2183603595e-04 1.7894760880e+00 -3.0994635034e+00 1.7894760880e+00 3.0994635034e+00 
89600 6.7392513882e+00 1.2243925157e-04 1.7894726838e+00 -3.0994576071e+00 1.7894726838e+00 3.0994576071e+00 
89700 6.7392513870e+00 1.2284870873e-04 1.7894692627e+00 -3.0994516816e+00 1.7894692627e+00 3.0994516816e+00 
89800 6.7392513858e+00 1.2306720020e-04 1.7894658301e+00 -3.0994457362e+00 1.7894658301e+00 3.0994457362e+00 
89900 6.7392513844e+00 1.2309776555e-04 1.7894623915e+00 -3.0994397803e+00 1.7894623915e+00 3.0994397803e+00 
90000 6.7392513830e+00 1.2294368152e-04 1.7894589520e+00 -3.0994338229e+00 1.7894589520e+00 3.0994338229e+00 
90100 6.7392513816e+00 1.2260845223e-04 1.7894555168e+00 -3.0994278729e+00 1.7894555168e+00 3.0994278729e+00 
90200 6.7392513802e+00 1.2209579926e-04 1.7894520909e+00 -3.0994219391e+00 1.7894520909e+00 3.0994219391e+00 
90300 6.7392513787e+00 1.2140965158e-04 1.7894486794e+00 -3.0994160302e+00 1.7894486794e+00 3.0994160302e+00 
90400 6.7392513772e+00 1.2055413539e-04 1.7894452870e+00 -3.0994101544e+00 1.7894452870e+00 3.0994101544e+00 
90500 6.7392513758e+00 1.1953356384e-04 1.7894419185e+00 -3.0994043200e+00 1.7894419185e+00 3.0994043200e+00 
90600 6.7392513743e+00 1.1835242668e-04 1.7894385785e+00 -3.0993985350e+00 1.7894385785e+00 3.0993985350e+00 
90700 6.7392513729e+00 1.1701537986e-04 1.7894352716e+00 -3.0993928072e+00 1.7894352716e+00 3.0993928072e+00 
90800 6.7392513715e+00 1.1552723511e-04 1.7894320019e+00 -3.0993871441e+00 1.7894320019e+00 3.0993871441e+00 
90900 6.7392513701e+00 1.1389294939e-04 1.7894287739e+00 -3.0993815529e+00 1.7894287739e+00 3.0993815529e+00 
91000 6.7392513689e+00 1.1211761444e-04 1.7894255915e+00 -3.0993760409e+00 1.7894255915e+00 3.0993760409e+00 
91100 6.7392513676e+00 1.1020644631e-04 1.7894224587e+00 -3.0993706148e+00 1.7894224587e+00 3.0993706148e+00 
91200 6.7392513665e+00 1.0816477484e-04 1.7894193794e+00 -3.0993652811e+00 1.7894193794e+00 3.0993652811e+00 
91300 6.7392513654e+00 1.0599803323e-04 1.7894163570e+00 -3.0993600463e+00 1.7894163570e+00 3.0993600463e+00 
91400 6.7392513643e+00 1.0371174768e-04 1.7894133952e+00 -3.0993549163e+00 1.7894133952e+00 3.0993549163e+00 
91500 6.7392513634e+00 1.0131152702e-04 1.7894104973e+00 -3.0993498969e+00 1.7894104973e+00 3.0993498969e+00 
91600 6.7392513626e+00 9.8803052502e-05 1.7894076664e+00 -3.0993449937e+00 1.7894076664e+00 3.0993449937e+00 
91700 6.7392513618e+00 9.6192067583e-05 1.7894049057e+00 -3.0993402119e+00 1.7894049057e+00 3.0993402119e+00 
91800 6.7392513612e+00 9.3484367915e-05 1.7894022178e+00 -3.0993355565e+00 1.7894022178e+00 3.0993355565e+00 
91900 6.7392513606e+00 9.0685791380e-05 1.7893996057e+00 -3.0993310321e+00 1.7893996057e+00 3.0993310321e+00 
92000 6.7392513601e+00 8.7802208292e-05 1.7893970717e+00 -3.0993266431e+00 1.7893970717e+00 3.0993266431e+00 
92100 6.7392513598e+00 8.4839511710e-05 1.7893946183e+00 -3.0993223937e+00 1.7893946183e+00 3.0993223937e+00 
92200 6.7392513595e+00 8.1803607930e-05 1.7893922477e+00 -3.0993182876e+00 1.7893922477e+00 3.0993182876e+00 
92300 6.7392513593e+00 7.8700407148e-05 1.7893899619e+00 -3.0993143285e+00 1.7893899619e+00 3.0993143285e+00 
92400 6.7392513593e+00 7.5535814253e-05 1.7893877628e+00 -3.0993105196e+00 1.7893877628e+00 3.0993105196e+00 
92500 6.7392513593e+00 7.2315719865e-05 1.7893856521e+00 -3.0993068638e+00 1.7893856521e+00 3.0993068638e+00 
92600 6.7392513594e+00 6.9045991517e-05 1.7893836314e+00 -3.0993033639e+00 1.7893836314e+00 3.0993033639e+00 
92700 6.7392513597e+00 6.8059708221e-05 1.7893836314e+00 -3.0993033639e+00 1.7893836314e+00 3.0993033639e+00 
92800 6.7392513602e+00 6.6940578954e-05 1.7893836314e+00 -3.0993033639e+00 1.7893836314e+00 3.0993033639e+00 
92900 6.7392513606e+00 6.5693570184e-05 1.7893836314e+00 -3.0993033639e+00 1.7893836314e+00 3.0993033639e+00 
93000 6.7392513612e+00 6.4323649718e-05 1.7893836314e+00 -3.0993033639e+00 1.7893836314e+00 3.0993033639e+00 
93100 6.7392513618e+00 6.2835781655e-05 1.7893836314e+00 -3.0993033639e+00 1.7893836314e+00 3.0993033639e+00 
93200 6.7392513624e+00 6.1234921476e-05 1.7893836314e+00 -3.0993033639e+00 1.7893836314e+00 3.0993033639e+00 
93300 6.7392513631e+00 5.9526011239e-05 1.7893836314e+00 -3.0993033639e+00 1.7893836314e+00 3.0993033639e+00 
93400 6.7392513638e+00 5.7713974913e-05 1.7893836314e+00 -3.0993033639e+00 1.7893836314e+00 3.0993033639e+00 
93500 6.7392513646e+00 5.5803713832e-05 1.7893836314e+00 -3.0993033639e+00 1.7893836314e+00 3.0993033639e+00 
93600 6.7392513654e+00 5.3800102272e-05 1.7893836314e+00 -3.0993033639e+00 1.7893836314e+00 3.0993033639e+00 
93700 6.7392513662e+00 5.1707983168e-05 1.7893836314e+00 -3.0993033639e+00 1.7893836314e+00 3.0993033639e+00 
93800 6.7392513670e+00 4.9532163944e-05 1.7893836314e+00 -3.0993033639e+00 1.7893836314e+00 3.0993033639e+00 
93900 6.7392513679e+00 4.7277412495e-05 1.7893836314e+00 -3.0993033639e+00 1.7893836314e+00 3.0993033639e+00 
94000 6.7392513688e+00 4.4948453291e-05 1.7893836314e+00 -3.0993033639e+00 1.7893836314e+00 3.0993033639e+00 
94100 6.7392513697e+00 4.2549963601e-05 1.7893836314e+00 -3.0993033639e+00 1.7893836314e+00 3.0993033639e+00 
94200 6.7392513706e+00 4.0086569890e-05 1.7893836314e+00 -3.0993033639e+00 1.7893836314e+00 3.0993033639e+00 
94300 6.7392513715e+00 3.7562844297e-05 1.7893836314e+00 -3.0993033639e+00 1.7893836314e+00 3.0993033639e+00 
94400 6.7392513724e+00 3.4983301292e-05 1.7893836314e+00 -3.0993033639e+00 1.7893836314e+00 3.0993033639e+00 
94500 6.7392513733e+00 3.2352394454e-05 1.7893836314e+00 -3.0993033639e+00 1.7893836314e+00 3.0993033639e+00 
94600 6.7392513742e+00 2.9674513374e-05 1.7893836314e+00 -3.0993033639e+00 1.7893836314e+00 3.0993033639e+00 
94700 6.7392513750e+00 2.6953980710e-05 1.7893836314e+00 -3.0993033639e+00 1.7893836314e+00 3.0993033639e+00 
94800 6.7392513759e+00 2.4195049368e-05 1.7893836314e+00 -3.0993033639e+00 1.7893836314e+00 3.0993033639e+00 
94900 6.7392513768e+00 2.1401899819e-05 1.7893836314e+00 -3.0993033639e+00 1.7893836314e+00 3.0993033639e+00 
95000 6.7392513776e+00 1.8578637564e-05 1.7893836314e+00 -3.0993033639e+00 1.7893836314e+00 3.0993033639e+00 
95100 6.7392513784e+00 1.5729290708e-05 1.7893836314e+00 -3.0993033639e+00 1.7893836314e+00 3.0993033639e+00 
95200 6.7392513792e+00 1.2857807694e-05 1.7893836314e+00 -3.0993033639e+00 1.7893836314e+00 3.0993033639e+00 
95300 6.7392513800e+00 9.9680551655e-06 1.7893836314e+00 -3.0993033639e+00 1.7893836314e+00 3.0993033639e+00 
95400 6.7392513807e+00 7.0638159449e-06 1.7893836314e+00 -3.0993033639e+00 1.7893836314e+00 3.0993033639e+00 
95500 6.7392513814e+00 4.1487871652e-06 1.7893836314e+00 -3.0993033639e+00 1.7893836314e+00 3.0993033639e+00 
95600 6.7392513821e+00 1.2265785266e-06 1.7893836314e+00 -3.0993033639e+00 1.7893836314e+00 3.0993033639e+00 
95700 6.7392513828e+00 -1.6992893253e-06 1.7893836314e+00 -3.0993033639e+00 1.7893836314e+00 3.0993033639e+00 
95800 6.7392513834e+00 -4.6253862859e-06 1.7893836314e+00 -3.0993033639e+00 1.7893836314e+00 3.0993033639e+00 
95900 6.7392513840e+00 -7.5483741378e-06 1.7893836314e+00 -3.0993033639e+00 1.7893836314e+00 3.0993033639e+00 
96000 6.7392513845e+00 -1.0465007795e-05 1.7893836314e+00 -3.0993033639e+00 1.7893836314e+00 3.0993033639e+00 
96100 6.7392513851e+00 -1.3372136406e-05 1.7893836314e+00 -3.0993033639e+00 1.7893836314e+00 3.0993033639e+00 
96200 6.7392513856e+00 -1.6266704334e-05 1.7893836314e+00 -3.0993033639e+00 1.7893836314e+00 3.0993033639e+00 
96300 6.7392513860e+00 -1.9145752025e-05 1.7893836314e+00 -3.0993033639e+00 1.7893836314e+00 3.0993033639e+00 
96400 6.7392513865e+00 -2.2006416738e-05 1.7893836314e+00 -3.0993033639e+00 1.7893836314e+00 3.0993033639e+00 
96500 6.7392513869e+00 -2.4845933182e-05 1.7893836314e+00 -3.0993033639e+00 1.7893836314e+00 3.0993033639e+00 
96600 6.7392513872e+00 -2.7661634009e-05 1.7893836314e+00 -3.0993033639e+00 1.7893836314e+00 3.0993033639e+00 
96700 6.7392513876e+00 -3.0450950215e-05 1.7893836314e+00 -3.0993033639e+00 1.7893836314e+00 3.0993033639e+00 
96800 6.7392513879e+00 -3.3211411423e-05 1.7893836314e+00 -3.0993033639e+00 1.7893836314e+00 3.0993033639e+00 
96900 6.7392513882e+00 -3.5940646042e-05 1.7893836314e+00 -3.0993033639e+00 1.7893836314e+00 3.0993033639e+00 
97000 6.7392513884e+00 -3.8636381339e-05 1.7893836314e+00 -3.0993033639e+00 1.7893836314e+00 3.0993033639e+00 
97100 6.7392513886e+00 -4.1296443396e-05 1.7893836314e+00 -3.0993033639e+00 1.7893836314e+00 3.0993033639e+00 
97200 6.7392513888e+00 -4.3918756951e-05 1.7893836314e+00 -3.0993033639e+00 1.7893836314e+00 3.0993033639e+00 
97300 6.7392513890e+00 -4.6501345162e-05 1.7893836314e+00 -3.0993033639e+00 1.7893836314e+00 3.0993033639e+00 
97400 6.7392513892e+00 -4.9042329266e-05 1.7893836314e+00 -3.0993033639e+00 1.7893836314e+00 3.0993033639e+00 
97500 6.7392513893e+00 -5.1539928111e-05 1.7893836314e+00 -3.0993033639e+00 1.7893836314e+00 3.0993033639e+00 
97600 6.7392513894e+00 -5.3992457651e-05 1.7893836314e+00 -3.0993033639e+00 1.7893836314e+00 3.0993033639e+00 
97700 6.7392513895e+00 -5.6398330302e-05 1.7893836314e+00 -3.0993033639e+00 1.7893836314e+00 3.0993033639e+00 
97800 6.7392513895e+00 -5.8756054233e-05 1.7893836314e+00 -3.0993033639e+00 1.7893836314e+00 3.0993033639e+00 
97900 6.7392513896e+00 -6.1064232560e-05 1.7893836314e+00 -3.0993033639e+00 1.7893836314e+00 3.0993033639e+00 
98000 6.7392513896e+00 -6.3321562472e-05 1.7893836314e+00 -3.0993033639e+00 1.7893836314e+00 3.0993033639e+00 
98100 6.7392513896e+00 -6.5526834260e-05 1.7893836314e+00 -3.0993033639e+00 1.7893836314e+00 3.0993033639e+00 
98200 6.7392513896e+00 -6.7678930282e-05 1.7893836314e+00 -3.0993033639e+00 1.7893836314e+00 3.0993033639e+00 
98300 6.7392513896e+00 -6.9776823841e-05 1.7893836314e+00 -3.0993033639e+00 1.7893836314e+00 3.0993033639e+00 
98400 6.7392513896e+00 -7.1819578009e-05 1.7893836314e+00 -3.0993033639e+00 1.7893836314e+00 3.0993033639e+00 
98500 6.7392513894e+00 -7.1385879507e-05 1.7893856383e+00 -3.0993068398e+00 1.7893856383e+00 3.0993068398e+00 
98600 6.7392513892e+00 -7.0892547147e-05 1.7893876330e+00 -3.0993102947e+00 1.7893876330e+00 3.0993102947e+00 
98700 6.7392513889e+00 -7.0339659224e-05 1.7893896139e+00 -3.0993137258e+00 1.7893896139e+00 3.0993137258e+00 
98800 6.7392513888e+00 -7.2098016654e-05 1.7893896139e+00 -3.0993137258e+00 1.7893896139e+00 3.0993137258e+00 
98900 6.7392513886e+00 -7.1364183136e-05 1.7893916285e+00 -3.0993172152e+00 1.7893916285e+00 3.0993172152e+00 
99000 6.7392513883e+00 -7.0574898212e-05 1.7893936226e+00 -3.0993206691e+00 1.7893936226e+00 3.0993206691e+00 
99100 6.7392513882e+00 -7.2109142952e-05 1.7893936226e+00 -3.0993206691e+00 1.7893936226e+00 3.0993206691e+00 
99200 6.7392513880e+00 -7.1147735555e-05 1.7893956375e+00 -3.0993241590e+00 1.7893956375e+00 3.0993241590e+00 
99300 6.7392513877e+00 -7.0135789137e-05 1.7893976255e+00 -3.0993276024e+00 1.7893976255e+00 3.0993276024e+00 
99400 6.7392513876e+00 -7.1437703435e-05 1.7893976255e+00 -3.0993276024e+00 1.7893976255e+00 3.0993276024e+00 
99500 6.7392513874e+00 -7.0264565417e-05 1.7893996217e+00 -3.0993310598e+00 1.7893996217e+00 3.0993310598e+00 
99600 6.7392513873e+00 -7.1414428591e-05 1.7893996217e+00 -3.0993310598e+00 1.7893996217e+00 3.0993310598e+00 
99700 6.7392513870e+00 -7.0089676229e-05 1.7894016172e+00 -3.0993345160e+00 1.7894016172e+00 3.0993345160e+00 
99800 6.7392513869e+00 -7.1086963774e-05 1.7894016172e+00 -3.0993345160e+00 1.7894016172e+00 3.0993345160e+00 
99900 6.7392513867e+00 -6.9620697484e-05 1.7894036035e+00 -3.0993379565e+00 1.7894036035e+00 3.0993379565e+00 
100000 6.7392513866e+00 -7.0465697096e-05 1.7894036035e+00 -3.0993379565e+00 1.7894036035e+00 3.0993379565e+00 
100100 6.7392513866e+00 -7.1243178007e-05 1.7894036035e+00 -3.0993379565e+00 1.7894036035e+00 3.0993379565e+00 
100200 6.7392513863e+00 -6.9553228358e-05 1.7894055942e+00 -3.0993414045e+00 1.7894055942e+00 3.0993414045e+00 
100300 6.7392513863e+00 -7.0181351646e-05 1.7894055942e+00 -3.0993414045e+00 1.7894055942e+00 3.0993414045e+00 
100400 6.7392513863e+00 -7.0743753092e-05 1.7894055942e+00 -3.0993414045e+00 1.7894055942e+00 3.0993414045e+00 
100500 6.7392513861e+00 -6.8857562076e-05 1.7894075709e+00 -3.0993448283e+00 1.7894075709e+00 3.0993448283e+00 
100600 6.7392513861e+00 -6.9274914604e-05 1.7894075709e+00 -3.0993448283e+00 1.7894075709e+00 3.0993448283e+00 
100700 6.7392513861e+00 -6.9628929727e-05 1.7894075709e+00 -3.0993448283e+00 1.7894075709e+00 3.0993448283e+00 
100800 6.7392513861e+00 -6.9920987587e-05 1.7894075709e+00 -3.0993448283e+00 1.7894075709e+00 3.0993448283e+00 
100900 6.7392513861e+00 -7.0152499994e-05 1.7894075709e+00 -3.0993448283e+00 1.7894075709e+00 3.0993448283e+00 
101000 6.7392513862e+00 -7.0324908141e-05 1.7894075709e+00 -3.0993448283e+00 1.7894075709e+00 3.0993448283e+00 
101100 6.7392513862e+00 -7.0439680315e-05 1.7894075709e+00 -3.0993448283e+00 1.7894075709e+00 3.0993448283e+00 
101200 6.7392513863e+00 -7.0498309665e-05 1.7894075709e+00 -3.0993448283e+00 1.7894075709e+00 3.0993448283e+00 
101300 6.7392513863e+00 -7.0502311966e-05 1.7894075709e+00 -3.0993448283e+00 1.7894075709e+00 3.0993448283e+00 
101400 6.7392513864e+00 -7.0453223439e-05 1.7894075709e+00 -3.0993448283e+00 1.7894075709e+00 3.0993448283e+00 
101500 6.7392513865e+00 -7.0352598568e-05 1.7894075709e+00 -3.0993448283e+00 1.7894075709e+00 3.0993448283e+00 
101600 6.7392513866e+00 -7.0202007986e-05 1.7894075709e+00 -3.0993448283e+00 1.7894075709e+00 3.0993448283e+00 
101700 6.7392513867e+00 -7.0003036356e-05 1.7894075709e+00 -3.0993448283e+00 1.7894075709e+00 3.0993448283e+00 
101800 6.7392513868e+00 -6.9757280328e-05 1.7894075709e+00 -3.0993448283e+00 1.7894075709e+00 3.0993448283e+00 
101900 6.7392513869e+00 -6.9466346486e-05 1.7894075709e+00 -3.0993448283e+00 1.7894075709e+00 3.0993448283e+00 
102000 6.7392513871e+00 -6.9131849370e-05 1.7894075709e+00 -3.0993448283e+00 1.7894075709e+00 3.0993448283e+00 
102100 6.7392513872e+00 -6.8755409513e-05 1.7894075709e+00 -3.0993448283e+00 1.7894075709e+00 3.0993448283e+00 
102200 6.7392513873e+00 -6.8338651523e-05 1.7894075709e+00 -3.0993448283e+00 1.7894075709e+00 3.0993448283e+00 
102300 6.7392513875e+00 -6.7883202213e-05 1.7894075709e+00 -3.0993448283e+00 1.7894075709e+00 3.0993448283e+00 
102400 6.7392513876e+00 -6.7390688770e-05 1.7894075709e+00 -3.0993448283e+00 1.7894075709e+00 3.0993448283e+00 
102500 6.7392513878e+00 -6.6862736951e-05 1.7894075709e+00 -3.0993448283e+00 1.7894075709e+00 3.0993448283e+00 
102600 6.7392513879e+00 -6.6300969348e-05 1.7894075709e+00 -3.0993448283e+00 1.7894075709e+00 3.0993448283e+00 
102700 6.7392513881e+00 -6.5707003681e-05 1.7894075709e+00 -3.0993448283e+00 1.7894075709e+00 3.0993448283e+00 
102800 6.7392513882e+00 -6.5082451131e-05 1.7894075709e+00 -3.0993448283e+00 1.7894075709e+00 3.0993448283e+00 
102900 6.7392513884e+00 -6.4428914746e-05 1.7894075709e+00 -3.0993448283e+00 1.7894075709e+00 3.0993448283e+00 
103000 6.7392513886e+00 -6.3747987860e-05 1.7894075709e+00 -3.0993448283e+00 1.7894075709e+00 3.0993448283e+00 
103100 6.7392513887e+00 -6.3041252574e-05 1.7894075709e+00 -3.0993448283e+00 1.7894075709e+00 3.0993448283e+00 
103200 6.7392513889e+00 -6.2310278302e-05 1.7894075709e+00 -3.0993448283e+00 1.7894075709e+00 3.0993448283e+00 
103300 6.7392513890e+00 -6.1556620332e-05 1.7894075709e+00 -3.0993448283e+00 1.7894075709e+00 3.0993448283e+00 
103400 6.7392513892e+00 -6.0781818468e-05 1.7894075709e+00 -3.0993448283e+00 1.7894075709e+00 3.0993448283e+00 
103500 6.7392513894e+00 -5.9987395695e-05 1.7894075709e+00 -3.0993448283e+00 1.7894075709e+00 3.0993448283e+00 
103600 6.7392513895e+00 -5.9174856903e-05 1.7894075709e+00 -3.0993448283e+00 1.7894075709e+00 3.0993448283e+00 
103700 6.7392513897e+00 -5.8345687690e-05 1.7894075709e+00 -3.0993448283e+00 1.7894075709e+00 3.0993448283e+00 
103800 6.7392513898e+00 -5.7501353144e-05 1.7894075709e+00 -3.0993448283e+00 1.7894075709e+00 3.0993448283e+00 
103900 6.7392513900e+00 -5.6643296763e-05 1.7894075709e+00 -3.0993448283e+00 1.7894075709e+00 3.0993448283e+00 
104000 6.7392513901e+00 -5.5772939349e-05 1.7894075709e+00 -3.0993448283e+00 1.7894075709e+00 3.0993448283e+00 
104100 6.7392513903e+00 -5.4891678006e-05 1.7894075709e+00 -3.0993448283e+00 1.7894075709e+00 3.0993448283e+00 
104200 6.7392513904e+00 -5.4000885163e-05 1.7894075709e+00 -3.0993448283e+00 1.7894075709e+00 3.0993448283e+00 
104300 6.7392513905e+00 -5.3101907650e-05 1.7894075709e+00 -3.0993448283e+00 1.7894075709e+00 3.0993448283e+00 
104400 6.7392513907e+00 -5.2196065822e-05 1.7894075709e+00 -3.0993448283e+00 1.7894075709e+00 3.0993448283e+00 
104500 6.7392513908e+00 -5.1284652748e-05 1.7894075709e+00 -3.0993448283e+00 1.7894075709e+00 3.0993448283e+00 
104600 6.7392513909e+00 -5.0368933435e-05 1.7894075709e+00 -3.0993448283e+00 1.7894075709e+00 3.0993448283e+00 
104700 6.7392513911e+00 -4.9450144099e-05 1.7894075709e+00 -3.0993448283e+00 1.7894075709e+00 3.0993448283e+00 
104800 6.7392513912e+00 -4.8529491508e-05 1.7894075709e+00 -3.0993448283e+00 1.7894075709e+00 3.0993448283e+00 
104900 6.7392513913e+00 -4.7608152344e-05 1.7894075709e+00 -3.0993448283e+00 1.7894075709e+00 3.0993448283e+00 
105000 6.7392513914e+00 -4.6687272632e-05 1.7894075709e+00 -3.0993448283e+00 1.7894075709e+00 3.0993448283e+00 
105100 6.7392513915e+00 -4.5767967223e-05 1.7894075709e+00 -3.0993448283e+00 1.7894075709e+00 3.0993448283e+00 
105200 6.7392513916e+00 -4.4851319296e-05 1.7894075709e+00 -3.0993448283e+00 1.7894075709e+00 3.0993448283e+00 
105300 6.7392513917e+00 -4.3938379944e-05 1.7894075709e+00 -3.0993448283e+00 1.7894075709e+00 3.0993448283e+00 
105400 6.7392513918e+00 -4.3030167771e-05 1.7894075709e+00 -3.0993448283e+00 1.7894075709e+00 3.0993448283e+00 
105500 6.7392513919e+00 -4.2127668567e-05 1.7894075709e+00 -3.0993448283e+00 1.7894075709e+00 3.0993448283e+00 
105600 6.7392513919e+00 -4.1231835008e-05 1.7894075709e+00 -3.0993448283e+00 1.7894075709e+00 3.0993448283e+00 
105700 6.7392513920e+00 -4.0343586402e-05 1.7894075709e+00 -3.0993448283e+00 1.7894075709e+00 3.0993448283e+00 
105800 6.7392513921e+00 -3.9463808485e-05 1.7894075709e+00 -3.0993448283e+00 1.7894075709e+00 3.0993448283e+00 
105900 6.7392513922e+00 -3.8593353254e-05 1.7894075709e+00 -3.0993448283e+00 1.7894075709e+00 3.0993448283e+00 
106000 6.7392513922e+00 -3.7733038856e-05 1.7894075709e+00 -3.0993448283e+00 1.7894075709e+00 3.0993448283e+00 
106100 6.7392513923e+00 -3.6883649494e-05 1.7894075709e+00 -3.0993448283e+00 1.7894075709e+00 3.0993448283e+00 
106200 6.7392513923e+00 -3.6045935398e-05 1.7894075709e+00 -3.0993448283e+00 1.7894075709e+00 3.0993448283e+00 
106300 6.7392513924e+00 -3.5220612814e-05 1.7894075709e+00 -3.0993448283e+00 1.7894075709e+00 3.0993448283e+00 
106400 6.7392513924e+00 -3.4408364060e-05 1.7894075709e+00 -3.0993448283e+00 1.7894075709e+00 3.0993448283e+00 
106500 6.7392513925e+00 -3.3609837585e-05 1.7894075709e+00 -3.0993448283e+00 1.7894075709e+00 3.0993448283e+00 
106600 6.7392513925e+00 -3.2825648092e-05 1.7894075709e+00 -3.0993448283e+00 1.7894075709e+00 3.0993448283e+00 
106700 6.7392513926e+00 -3.2056376684e-05 1.7894075709e+00 -3.0993448283e+00 1.7894075709e+00 3.0993448283e+00 
106800 6.7392513926e+00 -3.1302571051e-05 1.7894075709e+00 -3.0993448283e+00 1.7894075709e+00 3.0993448283e+00 
106900 6.7392513926e+00 -3.0564745685e-05 1.7894075709e+00 -3.0993448283e+00 1.7894075709e+00 3.0993448283e+00 
107000 6.7392513927e+00 -2.9843382136e-05 1.7894075709e+00 -3.0993448283e+00 1.7894075709e+00 3.0993448283e+00 
107100 6.7392513927e+00 -2.9138929279e-05 1.7894075709e+00 -3.0993448283e+00 1.7894075709e+00 3.0993448283e+00 
107200 6.7392513927e+00 -2.8451803655e-05 1.7894075709e+00 -3.0993448283e+00 1.7894075709e+00 3.0993448283e+00 
107300 6.7392513928e+00 -2.7782389786e-05 1.7894075709e+00 -3.0993448283e+00 1.7894075709e+00 3.0993448283e+00 
107400 6.7392513928e+00 -2.7131040562e-05 1.7894075709e+00 -3.0993448283e+00 1.7894075709e+00 3.0993448283e+00 
107500 6.7392513928e+00 -2.6498077639e-05 1.7894075709e+00 -3.0993448283e+00 1.7894075709e+00 3.0993448283e+00 
107600 6.7392513928e+00 -2.5883791855e-05 1.7894075709e+00 -3.0993448283e+00 1.7894075709e+00 3.0993448283e+00 
107700 6.7392513929e+00 -2.5288443696e-05 1.7894075709e+00 -3.0993448283e+00 1.7894075709e+00 3.0993448283e+00 
107800 6.7392513929e+00 -2.4814552138e-05 1.7894075709e+00 -3.0993448283e+00 1.7894075709e+00 3.0993448283e+00 
107800 6.7392513929e+00 -2.4814552138e-05 1.7894075709e+00 -3.0993448283e+00 1.7894075709e+00 3.0993448283e+00 
