# step Hamiltonian StressXX CellTensor1 CellTensor2 CellTensor3 CellTensor4 
0 5.3808877366e+00 1.4437658395e-01 2.6408444507e+00 -4.5740767634e+00 2.6408444507e+00 4.5740767634e+00 
100 5.3677822935e+00 1.6079610212e-01 2.6408444507e+00 -4.5740767634e+00 2.6408444507e+00 4.5740767634e+00 
200 5.3567300978e+00 1.7698756249e-01 2.6378006294e+00 -4.5688047103e+00 2.6378006294e+00 4.5688047103e+00 
300 5.3477364251e+00 1.9240307914e-01 2.6344465093e+00 -4.5629952040e+00 2.6344465093e+00 4.5629952040e+00 
400 5.3405426074e+00 2.0708415023e-01 2.6307956747e+00 -4.5566717730e+00 2.6307956747e+00 4.5566717730e+00 
500 5.3349150883e+00 2.2107807570e-01 2.6268608873e+00 -4.5498565211e+00 2.6268608873e+00 4.5498565211e+00 
600 5.3306412472e+00 2.3443525589e-01 2.6226539847e+00 -4.5425699522e+00 2.6226539847e+00 4.5425699522e+00 
700 5.3275259743e+00 2.4720684576e-01 2.6181858284e+00 -4.5348308785e+00 2.6181858284e+00 4.5348308785e+00 
800 5.3253889287e+00 2.5944277568e-01 2.6134662929e+00 -4.5266564032e+00 2.6134662929e+00 4.5266564032e+00 
900 5.3240624103e+00 2.7119013604e-01 2.6085042910e+00 -4.5180619637e+00 2.6085042910e+00 4.5180619637e+00 
1000 5.3233897634e+00 2.8249190947e-01 2.6033078287e+00 -4.5090614270e+00 2.6033078287e+00 4.5090614270e+00 
1100 5.3232242378e+00 2.9338602417e-01 2.5978840832e+00 -4.4996672243e+00 2.5978840832e+00 4.4996672243e+00 
1200 5.3234282306e+00 3.0390469512e-01 2.5922394990e+00 -4.4898905176e+00 2.5922394990e+00 4.4898905176e+00 
1300 5.3238728417e+00 3.1407401651e-01 2.5863798957e+00 -4.4797413871e+00 2.5863798957e+00 4.4797413871e+00 
1400 5.3244376794e+00 3.2391376922e-01 2.5803105854e+00 -4.4692290333e+00 2.5803105854e+00 4.4692290333e+00 
1500 5.3250108644e+00 3.3343741005e-01 2.5740364933e+00 -4.4583619869e+00 2.5740364933e+00 4.4583619869e+00 
1600 5.3254891826e+00 3.4265221466e-01 2.5675622801e+00 -4.4471483207e+00 2.5675622801e+00 4.4471483207e+00 
1700 5.3257783485e+00 3.5155955258e-01 2.5608924631e+00 -4.4355958587e+00 2.5608924631e+00 4.4355958587e+00 
1800 5.3257933399e+00 3.6015527974e-01 2.5540315330e+00 -4.4237123793e+00 2.5540315330e+00 4.4237123793e+00 
1900 5.3254587755e+00 3.6843024021e-01 2.5469840649e+00 -4.4115058066e+00 2.5469840649e+00 4.4115058066e+00 
2000 5.3247092998e+00 3.7637087452e-01 2.5397548212e+00 -4.3989843891e+00 2.5397548212e+00 4.3989843891e+00 
2100 5.3234899493e+00 3.8395993499e-01 2.5323488439e+00 -4.3861568601e+00 2.5323488439e+00 4.3861568601e+00 
2200 5.3217564644e+00 3.9117730793e-01 2.5247715351e+00 -4.3730325763e+00 2.5247715351e+00 4.3730325763e+00 
2300 5.3194755156e+00 3.9800093871e-01 2.5170287226e+00 -4.3596216317e+00 2.5170287226e+00 4.3596216317e+00 
2400 5.3166248085e+00 4.0440784587e-01 2.5091267086e+00 -4.3459349420e+00 2.5091267086e+00 4.3459349420e+00 
2500 5.3131930306e+00 4.1037519756e-01 2.5010722993e+00 -4.3319842958e+00 2.5010722993e+00 4.3319842958e+00 
2600 5.3091796068e+00 4.1588140758e-01 2.4928728141e+00 -4.3177823708e+00 2.4928728141e+00 4.3177823708e+00 
2700 5.3045942360e+00 4.2090719326e-01 2.4845360731e+00 -4.3033427118e+00 2.4845360731e+00 4.3033427118e+00 
2800 5.2994561922e+00 4.2543652736e-01 2.4760703637e+00 -4.2886796730e+00 2.4760703637e+00 4.2886796730e+00 
2900 5.2937933904e+00 4.2945741436e-01 2.4674843868e+00 -4.2738083249e+00 2.4674843868e+00 4.2738083249e+00 
3000 5.2876412360e+00 4.3296243144e-01 2.4587871872e+00 -4.2587443333e+00 2.4587871872e+00 4.2587443333e+00 
3100 5.2810412994e+00 4.3594899510e-01 2.4499880704e+00 -4.2435038159e+00 2.4499880704e+00 4.2435038159e+00 
3200 5.2740398757e+00 4.3841934285e-01 2.4410965132e+00 -4.2281031871e+00 2.4410965132e+00 4.2281031871e+00 
3300 5.2666865002e+00 4.4038025120e-01 2.4321220719e+00 -4.2125589987e+00 2.4321220719e+00 4.2125589987e+00 
3400 5.2590324977e+00 4.4184253843e-01 2.4230742938e+00 -4.1968877873e+00 2.4230742938e+00 4.1968877873e+00 
3500 5.2511296372e+00 4.4282041947e-01 2.4139626375e+00 -4.1811059357e+00 2.4139626375e+00 4.1811059357e+00 
3600 5.2430289496e+00 4.4333078714e-01 2.4047964035e+00 -4.1652295527e+00 2.4047964035e+00 4.1652295527e+00 
3700 5.2347797492e+00 4.4339248960e-01 2.3955846781e+00 -4.1492743763e+00 2.3955846781e+00 4.1492743763e+00 
3800 5.2264288771e+00 4.4302566012e-01 2.3863362907e+00 -4.1332556994e+00 2.3863362907e+00 4.1332556994e+00 
3900 5.2180201648e+00 4.4225113786e-01 2.3770597834e+00 -4.1171883174e+00 2.3770597834e+00 4.1171883174e+00 
4000 5.2095941013e+00 4.4108999883e-01 2.3677633922e+00 -4.1010864956e+00 2.3677633922e+00 4.1010864956e+00 
4100 5.2011876742e+00 4.3956320094e-01 2.3584550369e+00 -4.0849639513e+00 2.3584550369e+00 4.0849639513e+00 
4200 5.1928343509e+00 4.3769133445e-01 2.3491423179e+00 -4.0688338488e+00 2.3491423179e+00 4.0688338488e+00 
4300 5.1845641645e+00 4.3549446224e-01 2.3398325182e+00 -4.0527088026e+00 2.3398325182e+00 4.0527088026e+00 
4400 5.1764038704e+00 4.3299203140e-01 2.3305326083e+00 -4.0366008862e+00 2.3305326083e+00 4.0366008862e+00 
4500 5.1683771476e+00 4.3020283736e-01 2.3212492533e+00 -4.0205216438e+00 2.3212492533e+00 4.0205216438e+00 
4600 5.1605048185e+00 4.2714502391e-01 2.3119888205e+00 -4.0044821036e+00 2.3119888205e+00 4.0044821036e+00 
4700 5.1528050737e+00 4.2383610550e-01 2.3027573866e+00 -3.9884927911e+00 2.3027573866e+00 3.9884927911e+00 
4800 5.1452936879e+00 4.2029300115e-01 2.2935607454e+00 -3.9725637413e+00 2.2935607454e+00 3.9725637413e+00 
4900 5.1379842210e+00 4.1653207252e-01 2.2844044141e+00 -3.9567045102e+00 2.2844044141e+00 3.9567045102e+00 
5000 5.1308882000e+00 4.1256916076e-01 2.2752936388e+00 -3.9409241845e+00 2.2752936388e+00 3.9409241845e+00 
5100 5.1240152811e+00 4.0841961929e-01 2.2662334000e+00 -3.9252313906e+00 2.2662334000e+00 3.9252313906e+00 
5200 5.1173733925e+00 4.0409834058e-01 2.2572284167e+00 -3.9096343020e+00 2.2572284167e+00 3.9096343020e+00 
5300 5.1109688599e+00 3.9961977644e-01 2.2482831501e+00 -3.8941406458e+00 2.2482831501e+00 3.8941406458e+00 
5400 5.1048065171e+00 3.9499795176e-01 2.2394018076e+00 -3.8787577093e+00 2.2394018076e+00 3.8787577093e+00 
5500 5.0988898045e+00 3.9024647239e-01 2.2305883454e+00 -3.8634923450e+00 2.2305883454e+00 3.8634923450e+00 
5600 5.0932208577e+00 3.8537852776e-01 2.2218464724e+00 -3.8483509769e+00 2.2218464724e+00 3.8483509769e+00 
5700 5.0878005895e+00 3.8040688929e-01 2.2131796531e+00 -3.8333396054e+00 2.2131796531e+00 3.8333396054e+00 
5800 5.0826287662e+00 3.7534390557e-01 2.2045911110e+00 -3.8184638141e+00 2.2045911110e+00 3.8184638141e+00 
5900 5.0777040816e+00 3.7020149511e-01 2.1960838325e+00 -3.8037287755e+00 2.1960838325e+00 3.8037287755e+00 
6000 5.0730242283e+00 3.6499113772e-01 2.1876605708e+00 -3.7891392584e+00 2.1876605708e+00 3.7891392584e+00 
6100 5.0685859689e+00 3.5972386520e-01 2.1793238506e+00 -3.7746996353e+00 2.1793238506e+00 3.7746996353e+00 
6200 5.0643852064e+00 3.5441025212e-01 2.1710759723e+00 -3.7604138911e+00 2.1710759723e+00 3.7604138911e+00 
6300 5.0604170559e+00 3.4906040725e-01 2.1629190180e+00 -3.7462856319e+00 2.1629190180e+00 3.7462856319e+00 
6400 5.0566759159e+00 3.4368396610e-01 2.1548548568e+00 -3.7323180948e+00 2.1548548568e+00 3.7323180948e+00 
6500 5.0531555408e+00 3.3829008507e-01 2.1468851507e+00 -3.7185141590e+00 2.1468851507e+00 3.7185141590e+00 
6600 5.0498491129e+00 3.3288743731e-01 2.1390113617e+00 -3.7048763564e+00 2.1390113617e+00 3.7048763564e+00 
6700 5.0467493155e+00 3.2748421075e-01 2.1312347581e+00 -3.6914068838e+00 2.1312347581e+00 3.6914068838e+00 
6800 5.0438484045e+00 3.2208810808e-01 2.1235564219e+00 -3.6781076155e+00 2.1235564219e+00 3.6781076155e+00 
6900 5.0411382794e+00 3.1670634909e-01 2.1159772564e+00 -3.6649801157e+00 2.1159772564e+00 3.6649801157e+00 
7000 5.0386105533e+00 3.1134567504e-01 2.1084979935e+00 -3.6520256524e+00 2.1084979935e+00 3.6520256524e+00 
7100 5.0362566208e+00 3.0601235516e-01 2.1011192022e+00 -3.6392452109e+00 2.1011192022e+00 3.6392452109e+00 
7200 5.0340677231e+00 3.0071219514e-01 2.0938412958e+00 -3.6266395073e+00 2.0938412958e+00 3.6266395073e+00 
7300 5.0320350108e+00 2.9545054747e-01 2.0866645408e+00 -3.6142090030e+00 2.0866645408e+00 3.6142090030e+00 
7400 5.0301496035e+00 2.9023232338e-01 2.0795890644e+00 -3.6019539183e+00 2.0795890644e+00 3.6019539183e+00 
7500 5.0284026453e+00 2.8506200632e-01 2.0726148629e+00 -3.5898742470e+00 2.0726148629e+00 3.5898742470e+00 
7600 5.0267853572e+00 2.7994366671e-01 2.0657418097e+00 -3.5779697697e+00 2.0657418097e+00 3.5779697697e+00 
7700 5.0252890846e+00 2.7488097772e-01 2.0589696632e+00 -3.5662400679e+00 2.0589696632e+00 3.5662400679e+00 
7800 5.0239053410e+00 2.6987723204e-01 2.0522980747e+00 -3.5546845377e+00 2.0522980747e+00 3.5546845377e+00 
7900 5.0226258471e+00 2.6493535921e-01 2.0457265959e+00 -3.5433024024e+00 2.0457265959e+00 3.5433024024e+00 
8000 5.0214425658e+00 2.6005794356e-01 2.0392546863e+00 -3.5320927263e+00 2.0392546863e+00 3.5320927263e+00 
8100 5.0203477323e+00 2.5524724238e-01 2.0328817209e+00 -3.5210544263e+00 2.0328817209e+00 3.5210544263e+00 
8200 5.0193338798e+00 2.5050520431e-01 2.0266069963e+00 -3.5101862845e+00 2.0266069963e+00 3.5101862845e+00 
8300 5.0183938615e+00 2.4583348772e-01 2.0204297381e+00 -3.4994869596e+00 2.0204297381e+00 3.4994869596e+00 
8400 5.0175208676e+00 2.4123347893e-01 2.0143491074e+00 -3.4889549982e+00 2.0143491074e+00 3.4889549982e+00 
8500 5.0167084393e+00 2.3670631020e-01 2.0083642062e+00 -3.4785888452e+00 2.0083642062e+00 3.4785888452e+00 
8600 5.0159504776e+00 2.3225287737e-01 2.0024740840e+00 -3.4683868544e+00 2.0024740840e+00 3.4683868544e+00 
8700 5.0152412506e+00 2.2787385704e-01 1.9966777431e+00 -3.4583472973e+00 1.9966777431e+00 3.4583472973e+00 
8800 5.0145753952e+00 2.2356972318e-01 1.9909741435e+00 -3.4484683731e+00 1.9909741435e+00 3.4484683731e+00 
8900 5.0139479177e+00 2.1934076320e-01 1.9853622086e+00 -3.4387482166e+00 1.9853622086e+00 3.4387482166e+00 
9000 5.0133541906e+00 2.1518709337e-01 1.9798408290e+00 -3.4291849067e+00 1.9798408290e+00 3.4291849067e+00 
9100 5.0127899469e+00 2.1110867348e-01 1.9744088676e+00 -3.4197764736e+00 1.9744088676e+00 3.4197764736e+00 
9200 5.0122512729e+00 2.0710532090e-01 1.9690651633e+00 -3.4105209062e+00 1.9690651633e+00 3.4105209062e+00 
9300 5.0117345983e+00 2.0317672381e-01 1.9638085347e+00 -3.4014161584e+00 1.9638085347e+00 3.4014161584e+00 
9400 5.0112366850e+00 1.9932245373e-01 1.9586377840e+00 -3.3924601555e+00 1.9586377840e+00 3.3924601555e+00 
9500 5.0107546146e+00 1.9554197731e-01 1.9535517000e+00 -3.3836507996e+00 1.9535517000e+00 3.3836507996e+00 
9600 5.0102857743e+00 1.9183466738e-01 1.9485490612e+00 -3.3749859750e+00 1.9485490612e+00 3.3749859750e+00 
9700 5.0098278426e+00 1.8819981322e-01 1.9436286387e+00 -3.3664635532e+00 1.9436286387e+00 3.3664635532e+00 
9800 5.0093787731e+00 1.8463663019e-01 1.9387891986e+00 -3.3580813972e+00 1.9387891986e+00 3.3580813972e+00 
9900 5.0089367794e+00 1.8114426862e-01 1.9340295046e+00 -3.3498373653e+00 1.9340295046e+00 3.3498373653e+00 
10000 5.0085003182e+00 1.7772182208e-01 1.9293483199e+00 -3.3417293156e+00 1.9293483199e+00 3.3417293156e+00 
10100 5.0080680728e+00 1.7436833493e-01 1.9247444093e+00 -3.3337551085e+00 1.9247444093e+00 3.3337551085e+00 
10200 5.0076389371e+00 1.7108280932e-01 1.9202165411e+00 -3.3259126107e+00 1.9202165411e+00 3.3259126107e+00 
10300 5.0072119992e+00 1.6786421161e-01 1.9157634885e+00 -3.3181996973e+00 1.9157634885e+00 3.3181996973e+00 
10400 5.0067865249e+00 1.6471147818e-01 1.9113840313e+00 -3.3106142550e+00 1.9113840313e+00 3.3106142550e+00 
10500 5.0063619427e+00 1.6162352081e-01 1.9070769571e+00 -3.3031541837e+00 1.9070769571e+00 3.3031541837e+00 
10600 5.0059378280e+00 1.5859923147e-01 1.9028410627e+00 -3.2958173993e+00 1.9028410627e+00 3.2958173993e+00 
10700 5.0055138890e+00 1.5563748673e-01 1.8986751548e+00 -3.2886018351e+00 1.8986751548e+00 3.2886018351e+00 
10800 5.0050899520e+00 1.5273715173e-01 1.8945780513e+00 -3.2815054438e+00 1.8945780513e+00 3.2815054438e+00 
10900 5.0046659486e+00 1.4989708373e-01 1.8905485822e+00 -3.2745261985e+00 1.8905485822e+00 3.2745261985e+00 
11000 5.0042419024e+00 1.4711613531e-01 1.8865855900e+00 -3.2676620946e+00 1.8865855900e+00 3.2676620946e+00 
11100 5.0038179175e+00 1.4439315725e-01 1.8826879307e+00 -3.2609111507e+00 1.8826879307e+00 3.2609111507e+00 
11200 5.0033941668e+00 1.4172700111e-01 1.8788544744e+00 -3.2542714096e+00 1.8788544744e+00 3.2542714096e+00 
11300 5.0029708817e+00 1.3911652144e-01 1.8750841055e+00 -3.2477409392e+00 1.8750841055e+00 3.2477409392e+00 
11400 5.0025483422e+00 1.3656057786e-01 1.8713757236e+00 -3.2413178333e+00 1.8713757236e+00 3.2413178333e+00 
11500 5.0021268678e+00 1.3405803680e-01 1.8677282434e+00 -3.2350002124e+00 1.8677282434e+00 3.2350002124e+00 
11600 5.0017068095e+00 1.3160777313e-01 1.8641405956e+00 -3.2287862241e+00 1.8641405956e+00 3.2287862241e+00 
11700 5.0012885417e+00 1.2920867144e-01 1.8606117267e+00 -3.2226740437e+00 1.8606117267e+00 3.2226740437e+00 
11800 5.0008724555e+00 1.2685962736e-01 1.8571405992e+00 -3.2166618746e+00 1.8571405992e+00 3.2166618746e+00 
11900 5.0004589527e+00 1.2455954848e-01 1.8537261924e+00 -3.2107479485e+00 1.8537261924e+00 3.2107479485e+00 
12000 5.0000484398e+00 1.2230735539e-01 1.8503675018e+00 -3.2049305257e+00 1.8503675018e+00 3.2049305257e+00 
12100 4.9996413232e+00 1.2010198234e-01 1.8470635397e+00 -3.1992078955e+00 1.8470635397e+00 3.1992078955e+00 
12200 4.9992380047e+00 1.1794237798e-01 1.8438133351e+00 -3.1935783761e+00 1.8438133351e+00 3.1935783761e+00 
12300 4.9988388778e+00 1.1582750592e-01 1.8406159339e+00 -3.1880403147e+00 1.8406159339e+00 3.1880403147e+00 
12400 4.9984443243e+00 1.1375634519e-01 1.8374703985e+00 -3.1825920877e+00 1.8374703985e+00 3.1825920877e+00 
12500 4.9980547111e+00 1.1172789064e-01 1.8343758085e+00 -3.1772321005e+00 1.8343758085e+00 3.1772321005e+00 
12600 4.9976703885e+00 1.0974115331e-01 1.8313312599e+00 -3.1719587877e+00 1.8313312599e+00 3.1719587877e+00 
12700 4.9972916875e+00 1.0779516067e-01 1.8283358658e+00 -3.1667706128e+00 1.8283358658e+00 3.1667706128e+00 
12800 4.9969189186e+00 1.0588895683e-01 1.8253887555e+00 -3.1616660682e+00 1.8253887555e+00 3.1616660682e+00 
12900 4.9965523702e+00 1.0402160274e-01 1.8224890754e+00 -3.1566436748e+00 1.8224890754e+00 3.1566436748e+00 
13000 4.9961923082e+00 1.0219217631e-01 1.8196359880e+00 -3.1517019825e+00 1.8196359880e+00 3.1517019825e+00 
13100 4.9958389748e+00 1.0039977251e-01 1.8168286723e+00 -3.1468395691e+00 1.8168286723e+00 3.1468395691e+00 
13200 4.9954925885e+00 9.8643503395e-02 1.8140663237e+00 -3.1420550409e+00 1.8140663237e+00 3.1420550409e+00 
13300 4.9951533435e+00 9.6922498194e-02 1.8113481533e+00 -3.1373470317e+00 1.8113481533e+00 3.1373470317e+00 
13400 4.9948214105e+00 9.5235903283e-02 1.8086733886e+00 -3.1327142033e+00 1.8086733886e+00 3.1327142033e+00 
13500 4.9944969361e+00 9.3582882190e-02 1.8060412725e+00 -3.1281552446e+00 1.8060412725e+00 3.1281552446e+00 
13600 4.9941800438e+00 9.1962615559e-02 1.8034510639e+00 -3.1236688716e+00 1.8034510639e+00 3.1236688716e+00 
13700 4.9938708343e+00 9.0374301109e-02 1.8009020367e+00 -3.1192538270e+00 1.8009020367e+00 3.1192538270e+00 
13800 4.9935693862e+00 8.8817153567e-02 1.7983934803e+00 -3.1149088799e+00 1.7983934803e+00 3.1149088799e+00 
13900 4.9932757568e+00 8.7290404598e-02 1.7959246991e+00 -3.1106328254e+00 1.7959246991e+00 3.1106328254e+00 
14000 4.9929899830e+00 8.5793302716e-02 1.7934950123e+00 -3.1064244844e+00 1.7934950123e+00 3.1064244844e+00 
14100 4.9927120820e+00 8.4325113194e-02 1.7911037537e+00 -3.1022827030e+00 1.7911037537e+00 3.1022827030e+00 
14200 4.9924420525e+00 8.2885117950e-02 1.7887502714e+00 -3.0982063521e+00 1.7887502714e+00 3.0982063521e+00 
14300 4.9921798757e+00 8.1472615434e-02 1.7864339279e+00 -3.0941943275e+00 1.7864339279e+00 3.0941943275e+00 
14400 4.9919255161e+00 8.0086920508e-02 1.7841540994e+00 -3.0902455486e+00 1.7841540994e+00 3.0902455486e+00 
14500 4.9916789230e+00 7.8727364308e-02 1.7819101758e+00 -3.0863589590e+00 1.7819101758e+00 3.0863589590e+00 
14600 4.9914400312e+00 7.7393294112e-02 1.7797015606e+00 -3.0825335253e+00 1.7797015606e+00 3.0825335253e+00 
14700 4.9912087620e+00 7.6084073185e-02 1.7775276704e+00 -3.0787682370e+00 1.7775276704e+00 3.0787682370e+00 
14800 4.9909850248e+00 7.4799080634e-02 1.7753879347e+00 -3.0750621061e+00 1.7753879347e+00 3.0750621061e+00 
14900 4.9907687174e+00 7.3537711243e-02 1.7732817959e+00 -3.0714141666e+00 1.7732817959e+00 3.0714141666e+00 
15000 4.9905597276e+00 7.2299375305e-02 1.7712087085e+00 -3.0678234738e+00 1.7712087085e+00 3.0678234738e+00 
15100 4.9903579342e+00 7.1083498453e-02 1.7691681394e+00 -3.0642891045e+00 1.7691681394e+00 3.0642891045e+00 
15200 4.9901632075e+00 6.9889521478e-02 1.7671595674e+00 -3.0608101559e+00 1.7671595674e+00 3.0608101559e+00 
15300 4.9899754106e+00 6.8716900142e-02 1.7651824830e+00 -3.0573857452e+00 1.7651824830e+00 3.0573857452e+00 
15400 4.9897944003e+00 6.7565104989e-02 1.7632363880e+00 -3.0540150097e+00 1.7632363880e+00 3.0540150097e+00 
15500 4.9896200279e+00 6.6433621144e-02 1.7613207953e+00 -3.0506971058e+00 1.7613207953e+00 3.0506971058e+00 
15600 4.9894521399e+00 6.5321948111e-02 1.7594352287e+00 -3.0474312087e+00 1.7594352287e+00 3.0474312087e+00 
15700 4.9892905790e+00 6.4229599565e-02 1.7575792226e+00 -3.0442165119e+00 1.7575792226e+00 3.0442165119e+00 
15800 4.9891351849e+00 6.3156103130e-02 1.7557523218e+00 -3.0410522268e+00 1.7557523218e+00 3.0410522268e+00 
15900 4.9889857945e+00 6.2101000168e-02 1.7539540810e+00 -3.0379375824e+00 1.7539540810e+00 3.0379375824e+00 
16000 4.9888422432e+00 6.1063845546e-02 1.7521840648e+00 -3.0348718244e+00 1.7521840648e+00 3.0348718244e+00 
16100 4.9887043651e+00 6.0044207407e-02 1.7504418473e+00 -3.0318542152e+00 1.7504418473e+00 3.0318542152e+00 
16200 4.9885719936e+00 5.9041666936e-02 1.7487270119e+00 -3.0288840332e+00 1.7487270119e+00 3.0288840332e+00 
16300 4.9884449623e+00 5.8055818116e-02 1.7470391510e+00 -3.0259605723e+00 1.7470391510e+00 3.0259605723e+00 
16400 4.9883231049e+00 5.7086267488e-02 1.7453778658e+00 -3.0230831419e+00 1.7453778658e+00 3.0230831419e+00 
16500 4.9882062561e+00 5.6132633898e-02 1.7437427658e+00 -3.0202510658e+00 1.7437427658e+00 3.0202510658e+00 
16600 4.9880942519e+00 5.5194548247e-02 1.7421334691e+00 -3.0174636821e+00 1.7421334691e+00 3.0174636821e+00 
16700 4.9879869300e+00 5.4271653233e-02 1.7405496015e+00 -3.0147203429e+00 1.7405496015e+00 3.0147203429e+00 
16800 4.9878841299e+00 5.3363603095e-02 1.7389907966e+00 -3.0120204136e+00 1.7389907966e+00 3.0120204136e+00 
16900 4.9877856935e+00 5.2470063349e-02 1.7374566957e+00 -3.0093632728e+00 1.7374566957e+00 3.0093632728e+00 
17000 4.9876914653e+00 5.1590710522e-02 1.7359469470e+00 -3.0067483115e+00 1.7359469470e+00 3.0067483115e+00 
17100 4.9876012925e+00 5.0725231889e-02 1.7344612062e+00 -3.0041749330e+00 1.7344612062e+00 3.0041749330e+00 
17200 4.9875150254e+00 4.9873325204e-02 1.7329991355e+00 -3.0016425522e+00 1.7329991355e+00 3.0016425522e+00 
17300 4.9874325175e+00 4.9034698426e-02 1.7315604038e+00 -2.9991505957e+00 1.7315604038e+00 2.9991505957e+00 
17400 4.9873536255e+00 4.8209069457e-02 1.7301446862e+00 -2.9966985009e+00 1.7301446862e+00 2.9966985009e+00 
17500 4.9872782097e+00 4.7396165862e-02 1.7287516641e+00 -2.9942857160e+00 1.7287516641e+00 2.9942857160e+00 
17600 4.9872061340e+00 4.6595724603e-02 1.7273810249e+00 -2.9919116992e+00 1.7273810249e+00 2.9919116992e+00 
17700 4.9871372659e+00 4.5807491767e-02 1.7260324615e+00 -2.9895759189e+00 1.7260324615e+00 2.9895759189e+00 
17800 4.9870714768e+00 4.5031222293e-02 1.7247056725e+00 -2.9872778529e+00 1.7247056725e+00 2.9872778529e+00 
17900 4.9870086416e+00 4.4266679703e-02 1.7234003618e+00 -2.9850169884e+00 1.7234003618e+00 2.9850169884e+00 
18000 4.9869486393e+00 4.3513635836e-02 1.7221162383e+00 -2.9827928212e+00 1.7221162383e+00 2.9827928212e+00 
18100 4.9868913526e+00 4.2771870575e-02 1.7208530160e+00 -2.9806048561e+00 1.7208530160e+00 2.9806048561e+00 
18200 4.9868366680e+00 4.2041171589e-02 1.7196104137e+00 -2.9784526058e+00 1.7196104137e+00 2.9784526058e+00 
18300 4.9867844758e+00 4.1321334063e-02 1.7183881547e+00 -2.9763355910e+00 1.7183881547e+00 2.9763355910e+00 
18400 4.9867346703e+00 4.0612160441e-02 1.7171859667e+00 -2.9742533403e+00 1.7171859667e+00 2.9742533403e+00 
18500 4.9866871493e+00 3.9913460170e-02 1.7160035818e+00 -2.9722053896e+00 1.7160035818e+00 2.9722053896e+00 
18600 4.9866418144e+00 3.9225049441e-02 1.7148407360e+00 -2.9701912817e+00 1.7148407360e+00 2.9701912817e+00 
18700 4.9865985708e+00 3.8546750941e-02 1.7136971696e+00 -2.9682105665e+00 1.7136971696e+00 2.9682105665e+00 
18800 4.9865573275e+00 3.7878393606e-02 1.7125726263e+00 -2.9662628005e+00 1.7125726263e+00 2.9662628005e+00 
18900 4.9865179968e+00 3.7219812375e-02 1.7114668538e+00 -2.9643475463e+00 1.7114668538e+00 2.9643475463e+00 
19000 4.9864804944e+00 3.6570847952e-02 1.7103796032e+00 -2.9624643729e+00 1.7103796032e+00 2.9624643729e+00 
19100 4.9864447397e+00 3.5931346573e-02 1.7093106289e+00 -2.9606128552e+00 1.7093106289e+00 2.9606128552e+00 
19200 4.9864106549e+00 3.5301159773e-02 1.7082596888e+00 -2.9587925735e+00 1.7082596888e+00 2.9587925735e+00 
19300 4.9863781659e+00 3.4680144160e-02 1.7072265438e+00 -2.9570031139e+00 1.7072265438e+00 2.9570031139e+00 
19400 4.9863472014e+00 3.4068161198e-02 1.7062109579e+00 -2.9552440676e+00 1.7062109579e+00 2.9552440676e+00 
19500 4.9863176931e+00 3.3465076988e-02 1.7052126981e+00 -2.9535150308e+00 1.7052126981e+00 2.9535150308e+00 
19600 4.9862895757e+00 3.2870762059e-02 1.7042315341e+00 -2.9518156050e+00 1.7042315341e+00 2.9518156050e+00 
19700 4.9862627868e+00 3.2285091162e-02 1.7032672385e+00 -2.9501453960e+00 1.7032672385e+00 2.9501453960e+00 
19800 4.9862372667e+00 3.1707943075e-02 1.7023195864e+00 -2.9485040144e+00 1.7023195864e+00 2.9485040144e+00 
19900 4.9862129582e+00 3.1139200402e-02 1.7013883556e+00 -2.9468910752e+00 1.7013883556e+00 2.9468910752e+00 
20000 4.9861898067e+00 3.0578749390e-02 1.7004733262e+00 -2.9453061978e+00 1.7004733262e+00 2.9453061978e+00 
20100 4.9861677602e+00 3.0026479744e-02 1.6995742808e+00 -2.9437490056e+00 1.6995742808e+00 2.9437490056e+00 
20200 4.9861467689e+00 2.9482284451e-02 1.6986910044e+00 -2.9422191260e+00 1.6986910044e+00 2.9422191260e+00 
20300 4.9861267852e+00 2.8946059609e-02 1.6978232841e+00 -2.9407161903e+00 1.6978232841e+00 2.9407161903e+00 
20400 4.9861077639e+00 2.8417704260e-02 1.6969709093e+00 -2.9392398338e+00 1.6969709093e+00 2.9392398338e+00 
20500 4.9860896616e+00 2.7897120233e-02 1.6961336714e+00 -2.9377896953e+00 1.6961336714e+00 2.9377896953e+00 
20600 4.9860724372e+00 2.7384211985e-02 1.6953113640e+00 -2.9363654171e+00 1.6953113640e+00 2.9363654171e+00 
20700 4.9860560512e+00 2.6878886460e-02 1.6945037827e+00 -2.9349666452e+00 1.6945037827e+00 2.9349666452e+00 
20800 4.9860404661e+00 2.6381052941e-02 1.6937107249e+00 -2.9335930288e+00 1.6937107249e+00 2.9335930288e+00 
20900 4.9860256461e+00 2.5890622913e-02 1.6929319901e+00 -2.9322442206e+00 1.6929319901e+00 2.9322442206e+00 
21000 4.9860115571e+00 2.5407509938e-02 1.6921673795e+00 -2.9309198763e+00 1.6921673795e+00 2.9309198763e+00 
21100 4.9859981666e+00 2.4931629521e-02 1.6914166964e+00 -2.9296196549e+00 1.6914166964e+00 2.9296196549e+00 
21200 4.9859854435e+00 2.4462898994e-02 1.6906797456e+00 -2.9283432187e+00 1.6906797456e+00 2.9283432187e+00 
21300 4.9859733583e+00 2.4001237402e-02 1.6899563338e+00 -2.9270902327e+00 1.6899563338e+00 2.9270902327e+00 
21400 4.9859618828e+00 2.3546565392e-02 1.6892462694e+00 -2.9258603651e+00 1.6892462694e+00 2.9258603651e+00 
21500 4.9859509900e+00 2.3098805108e-02 1.6885493626e+00 -2.9246532870e+00 1.6885493626e+00 2.9246532870e+00 
21600 4.9859406543e+00 2.2657880092e-02 1.6878654250e+00 -2.9234686725e+00 1.6878654250e+00 2.9234686725e+00 
21700 4.9859308514e+00 2.2223715192e-02 1.6871942703e+00 -2.9223061984e+00 1.6871942703e+00 2.9223061984e+00 
21800 4.9859215577e+00 2.1796236469e-02 1.6865357134e+00 -2.9211655444e+00 1.6865357134e+00 2.9211655444e+00 
21900 4.9859127512e+00 2.1375371116e-02 1.6858895710e+00 -2.9200463929e+00 1.6858895710e+00 2.9200463929e+00 
22000 4.9859044104e+00 2.0961047375e-02 1.6852556614e+00 -2.9189484293e+00 1.6852556614e+00 2.9189484293e+00 
22100 4.9858965153e+00 2.0553194463e-02 1.6846338045e+00 -2.9178713416e+00 1.6846338045e+00 2.9178713416e+00 
22200 4.9858890463e+00 2.0151742502e-02 1.6840238217e+00 -2.9168148203e+00 1.6840238217e+00 2.9168148203e+00 
22300 4.9858819851e+00 1.9756622450e-02 1.6834255360e+00 -2.9157785590e+00 1.6834255360e+00 2.9157785590e+00 
22400 4.9858753140e+00 1.9367766040e-02 1.6828387718e+00 -2.9147622538e+00 1.6828387718e+00 2.9147622538e+00 
22500 4.9858690160e+00 1.8985105723e-02 1.6822633554e+00 -2.9137656032e+00 1.6822633554e+00 2.9137656032e+00 
22600 4.9858630752e+00 1.8608574608e-02 1.6816991142e+00 -2.9127883089e+00 1.6816991142e+00 2.9127883089e+00 
22700 4.9858574760e+00 1.8238106418e-02 1.6811458775e+00 -2.9118300748e+00 1.6811458775e+00 2.9118300748e+00 
22800 4.9858522038e+00 1.7873635437e-02 1.6806034759e+00 -2.9108906076e+00 1.6806034759e+00 2.9108906076e+00 
22900 4.9858472444e+00 1.7515096470e-02 1.6800717415e+00 -2.9099696167e+00 1.6800717415e+00 2.9099696167e+00 
23000 4.9858425844e+00 1.7162424800e-02 1.6795505081e+00 -2.9090668139e+00 1.6795505081e+00 2.9090668139e+00 
23100 4.9858382108e+00 1.6815556152e-02 1.6790396109e+00 -2.9081819140e+00 1.6790396109e+00 2.9081819140e+00 
23200 4.9858341113e+00 1.6474426659e-02 1.6785388865e+00 -2.9073146340e+00 1.6785388865e+00 2.9073146340e+00 
23300 4.9858302740e+00 1.6138972831e-02 1.6780481733e+00 -2.9064646938e+00 1.6780481733e+00 2.9064646938e+00 
23400 4.9858266875e+00 1.5809131526e-02 1.6775673110e+00 -2.9056318159e+00 1.6775673110e+00 2.9056318159e+00 
23500 4.9858233411e+00 1.5484839924e-02 1.6770961409e+00 -2.9048157253e+00 1.6770961409e+00 2.9048157253e+00 
23600 4.9858202243e+00 1.5166035505e-02 1.6766345058e+00 -2.9040161498e+00 1.6766345058e+00 2.9040161498e+00 
23700 4.9858173270e+00 1.4852656027e-02 1.6761822500e+00 -2.9032328198e+00 1.6761822500e+00 2.9032328198e+00 
23800 4.9858146396e+00 1.4544639511e-02 1.6757392194e+00 -2.9024654683e+00 1.6757392194e+00 2.9024654683e+00 
23900 4.9858121531e+00 1.4241924220e-02 1.6753052613e+00 -2.9017138308e+00 1.6753052613e+00 2.9017138308e+00 
24000 4.9858098584e+00 1.3944448649e-02 1.6748802247e+00 -2.9009776458e+00 1.6748802247e+00 2.9009776458e+00 
24100 4.9858077472e+00 1.3652151510e-02 1.6744639600e+00 -2.9002566541e+00 1.6744639600e+00 2.9002566541e+00 
24200 4.9858058112e+00 1.3364971725e-02 1.6740563192e+00 -2.8995505995e+00 1.6740563192e+00 2.8995505995e+00 
24300 4.9858040427e+00 1.3082848416e-02 1.6736571558e+00 -2.8988592282e+00 1.6736571558e+00 2.8988592282e+00 
24400 4.9858024341e+00 1.2805720899e-02 1.6732663248e+00 -2.8981822892e+00 1.6732663248e+00 2.8981822892e+00 
24500 4.9858009782e+00 1.2533528676e-02 1.6728836830e+00 -2.8975195342e+00 1.6728836830e+00 2.8975195342e+00 
24600 4.9857996680e+00 1.2266211435e-02 1.6725090885e+00 -2.8968707175e+00 1.6725090885e+00 2.8968707175e+00 
24700 4.9857984969e+00 1.2003709047e-02 1.6721424010e+00 -2.8962355961e+00 1.6721424010e+00 2.8962355961e+00 
24800 4.9857974584e+00 1.1745961563e-02 1.6717834819e+00 -2.8956139299e+00 1.6717834819e+00 2.8956139299e+00 
24900 4.9857965464e+00 1.1492909218e-02 1.6714321939e+00 -2.8950054812e+00 1.6714321939e+00 2.8950054812e+00 
25000 4.9857957549e+00 1.1244492425e-02 1.6710884014e+00 -2.8944100152e+00 1.6710884014e+00 2.8944100152e+00 
25100 4.9857950782e+00 1.1000651787e-02 1.6707519705e+00 -2.8938272998e+00 1.6707519705e+00 2.8938272998e+00 
25200 4.9857945108e+00 1.0761328091e-02 1.6704227687e+00 -2.8932571056e+00 1.6704227687e+00 2.8932571056e+00 
25300 4.9857940474e+00 1.0526462320e-02 1.6701006652e+00 -2.8926992059e+00 1.6701006652e+00 2.8926992059e+00 
25400 4.9857936829e+00 1.0295995650e-02 1.6697855306e+00 -2.8921533767e+00 1.6697855306e+00 2.8921533767e+00 
25500 4.9857934125e+00 1.0069869463e-02 1.6694772371e+00 -2.8916193968e+00 1.6694772371e+00 2.8916193968e+00 
25600 4.9857932315e+00 9.8480253485e-03 1.6691756587e+00 -2.8910970476e+00 1.6691756587e+00 2.8910970476e+00 
25700 4.9857931353e+00 9.6304051108e-03 1.6688806707e+00 -2.8905861134e+00 1.6688806707e+00 2.8905861134e+00 
25800 4.9857931196e+00 9.4169507780e-03 1.6685921501e+00 -2.8900863812e+00 1.6685921501e+00 2.8900863812e+00 
25900 4.9857931802e+00 9.2076046084e-03 1.6683099756e+00 -2.8895976405e+00 1.6683099756e+00 2.8895976405e+00 
26000 4.9857933131e+00 9.0023090992e-03 1.6680340271e+00 -2.8891196838e+00 1.6680340271e+00 2.8891196838e+00 
26100 4.9857935145e+00 8.8010069945e-03 1.6677641865e+00 -2.8886523061e+00 1.6677641865e+00 2.8886523061e+00 
26200 4.9857937806e+00 8.6036412950e-03 1.6675003370e+00 -2.8881953054e+00 1.6675003370e+00 2.8881953054e+00 
26300 4.9857941079e+00 8.4101552661e-03 1.6672423635e+00 -2.8877484821e+00 1.6672423635e+00 2.8877484821e+00 
26400 4.9857944929e+00 8.2204924476e-03 1.6669901523e+00 -2.8873116395e+00 1.6669901523e+00 2.8873116395e+00 
26500 4.9857949323e+00 8.0345966635e-03 1.6667435915e+00 -2.8868845836e+00 1.6667435915e+00 2.8868845836e+00 
26600 4.9857954231e+00 7.8524120307e-03 1.6665025705e+00 -2.8864671231e+00 1.6665025705e+00 2.8864671231e+00 
26700 4.9857959621e+00 7.6738829694e-03 1.6662669805e+00 -2.8860590692e+00 1.6662669805e+00 2.8860590692e+00 
26800 4.9857965466e+00 7.4989542124e-03 1.6660367141e+00 -2.8856602361e+00 1.6660367141e+00 2.8856602361e+00 
26900 4.9857971735e+00 7.3275708151e-03 1.6658116655e+00 -2.8852704404e+00 1.6658116655e+00 2.8852704404e+00 
27000 4.9857978405e+00 7.1596781648e-03 1.6655917304e+00 -2.8848895017e+00 1.6655917304e+00 2.8848895017e+00 
27100 4.9857985447e+00 6.9952219906e-03 1.6653768060e+00 -2.8845172418e+00 1.6653768060e+00 2.8845172418e+00 
27200 4.9857992839e+00 6.8341483731e-03 1.6651667912e+00 -2.8841534855e+00 1.6651667912e+00 2.8841534855e+00 
27300 4.9858000556e+00 6.6764037537e-03 1.6649615863e+00 -2.8837980602e+00 1.6649615863e+00 2.8837980602e+00 
27400 4.9858008575e+00 6.5219349437e-03 1.6647610931e+00 -2.8834507958e+00 1.6647610931e+00 2.8834507958e+00 
27500 4.9858016877e+00 6.3706891343e-03 1.6645652150e+00 -2.8831115248e+00 1.6645652150e+00 2.8831115248e+00 
27600 4.9858025438e+00 6.2226139046e-03 1.6643738567e+00 -2.8827800825e+00 1.6643738567e+00 2.8827800825e+00 
27700 4.9858034241e+00 6.0776572316e-03 1.6641869246e+00 -2.8824563067e+00 1.6641869246e+00 2.8824563067e+00 
27800 4.9858043267e+00 5.9357674979e-03 1.6640043265e+00 -2.8821400376e+00 1.6640043265e+00 2.8821400376e+00 
27900 4.9858052496e+00 5.7968935007e-03 1.6638259718e+00 -2.8818311181e+00 1.6638259718e+00 2.8818311181e+00 
28000 4.9858061913e+00 5.6609844599e-03 1.6636517711e+00 -2.8815293936e+00 1.6636517711e+00 2.8815293936e+00 
28100 4.9858071500e+00 5.5279900260e-03 1.6634816367e+00 -2.8812347122e+00 1.6634816367e+00 2.8812347122e+00 
28200 4.9858081242e+00 5.3978602881e-03 1.6633154822e+00 -2.8809469242e+00 1.6633154822e+00 2.8809469242e+00 
28300 4.9858091125e+00 5.2705457810e-03 1.6631532228e+00 -2.8806658827e+00 1.6631532228e+00 2.8806658827e+00 
28400 4.9858101133e+00 5.1459974926e-03 1.6629947749e+00 -2.8803914429e+00 1.6629947749e+00 2.8803914429e+00 
28500 4.9858111254e+00 5.0241668709e-03 1.6628400565e+00 -2.8801234628e+00 1.6628400565e+00 2.8801234628e+00 
28600 4.9858121474e+00 4.9050058304e-03 1.6626889869e+00 -2.8798618026e+00 1.6626889869e+00 2.8798618026e+00 
28700 4.9858131782e+00 4.7884667587e-03 1.6625414869e+00 -2.8796063250e+00 1.6625414869e+00 2.8796063250e+00 
28800 4.9858142166e+00 4.6745025222e-03 1.6623974786e+00 -2.8793568952e+00 1.6623974786e+00 2.8793568952e+00 
28900 4.9858152614e+00 4.5630664723e-03 1.6622568853e+00 -2.8791133806e+00 1.6622568853e+00 2.8791133806e+00 
29000 4.9858163117e+00 4.4541124503e-03 1.6621196321e+00 -2.8788756510e+00 1.6621196321e+00 2.8788756510e+00 
29100 4.9858173664e+00 4.3475947929e-03 1.6619856449e+00 -2.8786435785e+00 1.6619856449e+00 2.8786435785e+00 
29200 4.9858184246e+00 4.2434683370e-03 1.6618548515e+00 -2.8784170375e+00 1.6618548515e+00 2.8784170375e+00 
29300 4.9858194855e+00 4.1416884237e-03 1.6617271804e+00 -2.8781959048e+00 1.6617271804e+00 2.8781959048e+00 
29400 4.9858205481e+00 4.0422109033e-03 1.6616025620e+00 -2.8779800594e+00 1.6616025620e+00 2.8779800594e+00 
29500 4.9858216116e+00 3.9449921384e-03 1.6614809276e+00 -2.8777693824e+00 1.6614809276e+00 2.8777693824e+00 
29600 4.9858226754e+00 3.8499890081e-03 1.6613622098e+00 -2.8775637572e+00 1.6613622098e+00 2.8775637572e+00 
29700 4.9858237387e+00 3.7571589106e-03 1.6612463427e+00 -2.8773630695e+00 1.6612463427e+00 2.8773630695e+00 
29800 4.9858248009e+00 3.6664597668e-03 1.6611332615e+00 -2.8771672071e+00 1.6611332615e+00 2.8771672071e+00 
29900 4.9858258612e+00 3.5778500224e-03 1.6610229025e+00 -2.8769760597e+00 1.6610229025e+00 2.8769760597e+00 
30000 4.9858269192e+00 3.4912886507e-03 1.6609152035e+00 -2.8767895195e+00 1.6609152035e+00 2.8767895195e+00 
30100 4.9858279743e+00 3.4067351542e-03 1.6608101032e+00 -2.8766074805e+00 1.6608101032e+00 2.8766074805e+00 
30200 4.9858290259e+00 3.3241495667e-03 1.6607075418e+00 -2.8764298390e+00 1.6607075418e+00 2.8764298390e+00 
30300 4.9858300736e+00 3.2434924544e-03 1.6606074605e+00 -2.8762564931e+00 1.6606074605e+00 2.8762564931e+00 
30400 4.9858311169e+00 3.1647249175e-03 1.6605098017e+00 -2.8760873429e+00 1.6605098017e+00 2.8760873429e+00 
30500 4.9858321554e+00 3.0878085907e-03 1.6604145088e+00 -2.8759222909e+00 1.6604145088e+00 2.8759222909e+00 
30600 4.9858331887e+00 3.0127056440e-03 1.6603215266e+00 -2.8757612410e+00 1.6603215266e+00 2.8757612410e+00 
30700 4.9858342163e+00 2.9393787829e-03 1.6602308009e+00 -2.8756040994e+00 1.6602308009e+00 2.8756040994e+00 
30800 4.9858352381e+00 2.8677912486e-03 1.6601422784e+00 -2.8754507741e+00 1.6601422784e+00 2.8754507741e+00 
30900 4.9858362536e+00 2.7979068179e-03 1.6600559073e+00 -2.8753011749e+00 1.6600559073e+00 2.8753011749e+00 
31000 4.9858372626e+00 2.7296898022e-03 1.6599716366e+00 -2.8751552137e+00 1.6599716366e+00 2.8751552137e+00 
31100 4.9858382647e+00 2.6631050475e-03 1.6598894163e+00 -2.8750128040e+00 1.6598894163e+00 2.8750128040e+00 
31200 4.9858392598e+00 2.5981179331e-03 1.6598091976e+00 -2.8748738611e+00 1.6598091976e+00 2.8748738611e+00 
31300 4.9858402475e+00 2.5346943702e-03 1.6597309326e+00 -2.8747383022e+00 1.6597309326e+00 2.8747383022e+00 
31400 4.9858412278e+00 2.4728008011e-03 1.6596545746e+00 -2.8746060463e+00 1.6596545746e+00 2.8746060463e+00 
31500 4.9858422003e+00 2.4124041967e-03 1.6595800777e+00 -2.8744770139e+00 1.6595800777e+00 2.8744770139e+00 
31600 4.9858431649e+00 2.3534720556e-03 1.6595073971e+00 -2.8743511273e+00 1.6595073971e+00 2.8743511273e+00 
31700 4.9858441215e+00 2.2959724012e-03 1.6594364889e+00 -2.8742283106e+00 1.6594364889e+00 2.8742283106e+00 
31800 4.9858450699e+00 2.2398737798e-03 1.6593673101e+00 -2.8741084894e+00 1.6593673101e+00 2.8741084894e+00 
31900 4.9858460099e+00 2.1851452582e-03 1.6592998187e+00 -2.8739915910e+00 1.6592998187e+00 2.8739915910e+00 
32000 4.9858469415e+00 2.1317564207e-03 1.6592339738e+00 -2.8738775442e+00 1.6592339738e+00 2.8738775442e+00 
32100 4.9858478646e+00 2.0796773666e-03 1.6591697350e+00 -2.8737662794e+00 1.6591697350e+00 2.8737662794e+00 
32200 4.9858487790e+00 2.0288787067e-03 1.6591070632e+00 -2.8736577286e+00 1.6591070632e+00 2.8736577286e+00 
32300 4.9858496847e+00 1.9793315607e-03 1.6590459198e+00 -2.8735518252e+00 1.6590459198e+00 2.8735518252e+00 
32400 4.9858505816e+00 1.9310075532e-03 1.6589862675e+00 -2.8734485043e+00 1.6589862675e+00 2.8734485043e+00 
32500 4.9858514697e+00 1.8838788106e-03 1.6589280694e+00 -2.8733477023e+00 1.6589280694e+00 2.8733477023e+00 
32600 4.9858523489e+00 1.8379179572e-03 1.6588712897e+00 -2.8732493570e+00 1.6588712897e+00 2.8732493570e+00 
32700 4.9858532191e+00 1.7930981112e-03 1.6588158934e+00 -2.8731534078e+00 1.6588158934e+00 2.8731534078e+00 
32800 4.9858540804e+00 1.7493928811e-03 1.6587618462e+00 -2.8730597952e+00 1.6587618462e+00 2.8730597952e+00 
32900 4.9858549326e+00 1.7067763614e-03 1.6587091146e+00 -2.8729684614e+00 1.6587091146e+00 2.8729684614e+00 
33000 4.9858557759e+00 1.6652231281e-03 1.6586576659e+00 -2.8728793497e+00 1.6586576659e+00 2.8728793497e+00 
33100 4.9858566102e+00 1.6247082349e-03 1.6586074682e+00 -2.8727924048e+00 1.6586074682e+00 2.8727924048e+00 
33200 4.9858574355e+00 1.5852072079e-03 1.6585584904e+00 -2.8727075727e+00 1.6585584904e+00 2.8727075727e+00 
33300 4.9858582518e+00 1.5466960419e-03 1.6585107019e+00 -2.8726248006e+00 1.6585107019e+00 2.8726248006e+00 
33400 4.9858590590e+00 1.5091511952e-03 1.6584640731e+00 -2.8725440371e+00 1.6584640731e+00 2.8725440371e+00 
33500 4.9858598573e+00 1.4725495845e-03 1.6584185748e+00 -2.8724652318e+00 1.6584185748e+00 2.8724652318e+00 
33600 4.9858606467e+00 1.4368685809e-03 1.6583741788e+00 -2.8723883357e+00 1.6583741788e+00 2.8723883357e+00 
33700 4.9858614271e+00 1.4020860041e-03 1.6583308574e+00 -2.8723133008e+00 1.6583308574e+00 2.8723133008e+00 
33800 4.9858621987e+00 1.3681801177e-03 1.6582885836e+00 -2.8722400803e+00 1.6582885836e+00 2.8722400803e+00 
33900 4.9858629614e+00 1.3351296241e-03 1.6582473310e+00 -2.8721686287e+00 1.6582473310e+00 2.8721686287e+00 
34000 4.9858637153e+00 1.3029136591e-03 1.6582070739e+00 -2.8720989014e+00 1.6582070739e+00 2.8720989014e+00 
34100 4.9858644604e+00 1.2715117867e-03 1.6581677872e+00 -2.8720308549e+00 1.6581677872e+00 2.8720308549e+00 
34200 4.9858651968e+00 1.2409039941e-03 1.6581294465e+00 -2.8719644468e+00 1.6581294465e+00 2.8719644468e+00 
34300 4.9858659245e+00 1.2110706859e-03 1.6580920278e+00 -2.8718996358e+00 1.6580920278e+00 2.8718996358e+00 
34400 4.9858666436e+00 1.1819926786e-03 1.6580555080e+00 -2.8718363816e+00 1.6580555080e+00 2.8718363816e+00 
34500 4.9858673542e+00 1.1536511958e-03 1.6580198641e+00 -2.8717746447e+00 1.6580198641e+00 2.8717746447e+00 
34600 4.9858680562e+00 1.1260278618e-03 1.6579850742e+00 -2.8717143868e+00 1.6579850742e+00 2.8717143868e+00 
34700 4.9858687498e+00 1.0991046968e-03 1.6579511166e+00 -2.8716555705e+00 1.6579511166e+00 2.8716555705e+00 
34800 4.9858694350e+00 1.0728641109e-03 1.6579179703e+00 -2.8715981593e+00 1.6579179703e+00 2.8715981593e+00 
34900 4.9858701119e+00 1.0472888985e-03 1.6578856146e+00 -2.8715421176e+00 1.6578856146e+00 2.8715421176e+00 
35000 4.9858707805e+00 1.0223622332e-03 1.6578540296e+00 -2.8714874109e+00 1.6578540296e+00 2.8714874109e+00 
35100 4.9858714409e+00 9.9806766123e-04 1.6578231958e+00 -2.8714340051e+00 1.6578231958e+00 2.8714340051e+00 
35200 4.9858720933e+00 9.7438909675e-04 1.6577930942e+00 -2.8713818675e+00 1.6577930942e+00 2.8713818675e+00 
35300 4.9858727375e+00 9.5131081559e-04 1.6577637061e+00 -2.8713309659e+00 1.6577637061e+00 2.8713309659e+00 
35400 4.9858733738e+00 9.2881744980e-04 1.6577350136e+00 -2.8712812690e+00 1.6577350136e+00 2.8712812690e+00 
35500 4.9858740022e+00 9.0689398193e-04 1.6577069990e+00 -2.8712327464e+00 1.6577069990e+00 2.8712327464e+00 
35600 4.9858746228e+00 8.8552573943e-04 1.6576796452e+00 -2.8711853682e+00 1.6576796452e+00 2.8711853682e+00 
35700 4.9858752355e+00 8.6469838892e-04 1.6576529355e+00 -2.8711391056e+00 1.6576529355e+00 2.8711391056e+00 
35800 4.9858758406e+00 8.4439793057e-04 1.6576268536e+00 -2.8710939304e+00 1.6576268536e+00 2.8710939304e+00 
35900 4.9858764381e+00 8.2461069249e-04 1.6576013835e+00 -2.8710498150e+00 1.6576013835e+00 2.8710498150e+00 
36000 4.9858770281e+00 8.0532332506e-04 1.6575765100e+00 -2.8710067327e+00 1.6575765100e+00 2.8710067327e+00 
36100 4.9858776106e+00 7.8652279538e-04 1.6575522179e+00 -2.8709646575e+00 1.6575522179e+00 2.8709646575e+00 
36200 4.9858781857e+00 7.6819638163e-04 1.6575284925e+00 -2.8709235640e+00 1.6575284925e+00 2.8709235640e+00 
36300 4.9858787535e+00 7.5033166759e-04 1.6575053196e+00 -2.8708834274e+00 1.6575053196e+00 2.8708834274e+00 
36400 4.9858793140e+00 7.3291653703e-04 1.6574826853e+00 -2.8708442236e+00 1.6574826853e+00 2.8708442236e+00 
36500 4.9858798674e+00 7.1593916830e-04 1.6574605760e+00 -2.8708059292e+00 1.6574605760e+00 2.8708059292e+00 
36600 4.9858804138e+00 6.9938802877e-04 1.6574389786e+00 -2.8707685213e+00 1.6574389786e+00 2.8707685213e+00 
36700 4.9858809531e+00 6.8325186949e-04 1.6574178802e+00 -2.8707319778e+00 1.6574178802e+00 2.8707319778e+00 
36800 4.9858814855e+00 6.6751971972e-04 1.6573972683e+00 -2.8706962770e+00 1.6573972683e+00 2.8706962770e+00 
36900 4.9858820110e+00 6.5218088164e-04 1.6573771307e+00 -2.8706613977e+00 1.6573771307e+00 2.8706613977e+00 
37000 4.9858825298e+00 6.3722492498e-04 1.6573574557e+00 -2.8706273195e+00 1.6573574557e+00 2.8706273195e+00 
37100 4.9858830418e+00 6.2264168180e-04 1.6573382316e+00 -2.8705940224e+00 1.6573382316e+00 2.8705940224e+00 
37200 4.9858835473e+00 6.0842124122e-04 1.6573194472e+00 -2.8705614870e+00 1.6573194472e+00 2.8705614870e+00 
37300 4.9858840462e+00 5.9455394429e-04 1.6573010917e+00 -2.8705296942e+00 1.6573010917e+00 2.8705296942e+00 
37400 4.9858845386e+00 5.8103037880e-04 1.6572831543e+00 -2.8704986258e+00 1.6572831543e+00 2.8704986258e+00 
37500 4.9858850246e+00 5.6784137428e-04 1.6572656247e+00 -2.8704682637e+00 1.6572656247e+00 2.8704682637e+00 
37600 4.9858855043e+00 5.5497799691e-04 1.6572484929e+00 -2.8704385904e+00 1.6572484929e+00 2.8704385904e+00 
37700 4.9858859777e+00 5.4243154456e-04 1.6572317490e+00 -2.8704095891e+00 1.6572317490e+00 2.8704095891e+00 
37800 4.9858864450e+00 5.3019354190e-04 1.6572153834e+00 -2.8703812431e+00 1.6572153834e+00 2.8703812431e+00 
37900 4.9858869061e+00 5.1825573551e-04 1.6571993869e+00 -2.8703535364e+00 1.6571993869e+00 2.8703535364e+00 
38000 4.9858873612e+00 5.0661008908e-04 1.6571837504e+00 -2.8703264532e+00 1.6571837504e+00 2.8703264532e+00 
38100 4.9858878104e+00 4.9524877866e-04 1.6571684652e+00 -2.8702999784e+00 1.6571684652e+00 2.8702999784e+00 
38200 4.9858882537e+00 4.8416418799e-04 1.6571535226e+00 -2.8702740970e+00 1.6571535226e+00 2.8702740970e+00 
38300 4.9858886912e+00 4.7334890385e-04 1.6571389143e+00 -2.8702487948e+00 1.6571389143e+00 2.8702487948e+00 
38400 4.9858891229e+00 4.6279571149e-04 1.6571246322e+00 -2.8702240574e+00 1.6571246322e+00 2.8702240574e+00 
38500 4.9858895489e+00 4.5249759016e-04 1.6571106684e+00 -2.8701998714e+00 1.6571106684e+00 2.8701998714e+00 
38600 4.9858899694e+00 4.4244770862e-04 1.6570970152e+00 -2.8701762234e+00 1.6570970152e+00 2.8701762234e+00 
38700 4.9858903843e+00 4.3263942080e-04 1.6570836651e+00 -2.8701531004e+00 1.6570836651e+00 2.8701531004e+00 
38800 4.9858907937e+00 4.2306626143e-04 1.6570706109e+00 -2.8701304898e+00 1.6570706109e+00 2.8701304898e+00 
38900 4.9858911978e+00 4.1372194187e-04 1.6570578454e+00 -2.8701083794e+00 1.6570578454e+00 2.8701083794e+00 
39000 4.9858915965e+00 4.0460034585e-04 1.6570453618e+00 -2.8700867571e+00 1.6570453618e+00 2.8700867571e+00 
39100 4.9858919899e+00 3.9569552536e-04 1.6570331534e+00 -2.8700656115e+00 1.6570331534e+00 2.8700656115e+00 
39200 4.9858923782e+00 3.8700169663e-04 1.6570212135e+00 -2.8700449310e+00 1.6570212135e+00 2.8700449310e+00 
39300 4.9858927613e+00 3.7851323609e-04 1.6570095359e+00 -2.8700247048e+00 1.6570095359e+00 2.8700247048e+00 
39400 4.9858931394e+00 3.7022467646e-04 1.6569981143e+00 -2.8700049220e+00 1.6569981143e+00 2.8700049220e+00 
39500 4.9858935124e+00 3.6213070291e-04 1.6569869428e+00 -2.8699855724e+00 1.6569869428e+00 2.8699855724e+00 
39600 4.9858938806e+00 3.5422614924e-04 1.6569760154e+00 -2.8699666456e+00 1.6569760154e+00 2.8699666456e+00 
39700 4.9858942438e+00 3.4650599415e-04 1.6569653265e+00 -2.8699481318e+00 1.6569653265e+00 2.8699481318e+00 
39800 4.9858946022e+00 3.3896535758e-04 1.6569548705e+00 -2.8699300215e+00 1.6569548705e+00 2.8699300215e+00 
39900 4.9858949559e+00 3.3159949714e-04 1.6569446419e+00 -2.8699123051e+00 1.6569446419e+00 2.8699123051e+00 
40000 4.9858953049e+00 3.2440380451e-04 1.6569346356e+00 -2.8698949736e+00 1.6569346356e+00 2.8698949736e+00 
40100 4.9858956493e+00 3.1737380205e-04 1.6569248463e+00 -2.8698780181e+00 1.6569248463e+00 2.8698780181e+00 
40200 4.9858959891e+00 3.1050513935e-04 1.6569152691e+00 -2.8698614299e+00 1.6569152691e+00 2.8698614299e+00 
40300 4.9858963244e+00 3.0379358990e-04 1.6569058991e+00 -2.8698452007e+00 1.6569058991e+00 2.8698452007e+00 
40400 4.9858966552e+00 2.9723504783e-04 1.6568967316e+00 -2.8698293221e+00 1.6568967316e+00 2.8698293221e+00 
40500 4.9858969817e+00 2.9082552470e-04 1.6568877620e+00 -2.8698137863e+00 1.6568877620e+00 2.8698137863e+00 
40600 4.9858973038e+00 2.8456114635e-04 1.6568789858e+00 -2.8697985854e+00 1.6568789858e+00 2.8697985854e+00 
40700 4.9858976216e+00 2.7843814981e-04 1.6568703985e+00 -2.8697837118e+00 1.6568703985e+00 2.8697837118e+00 
40800 4.9858979352e+00 2.7245288030e-04 1.6568619960e+00 -2.8697691582e+00 1.6568619960e+00 2.8697691582e+00 
40900 4.9858982447e+00 2.6660178827e-04 1.6568537740e+00 -2.8697549174e+00 1.6568537740e+00 2.8697549174e+00 
41000 4.9858985501e+00 2.6088142652e-04 1.6568457286e+00 -2.8697409823e+00 1.6568457286e+00 2.8697409823e+00 
41100 4.9858988514e+00 2.5528844734e-04 1.6568378558e+00 -2.8697273461e+00 1.6568378558e+00 2.8697273461e+00 
41200 4.9858991487e+00 2.4981959975e-04 1.6568301517e+00 -2.8697140023e+00 1.6568301517e+00 2.8697140023e+00 
41300 4.9858994420e+00 2.4447172683e-04 1.6568226126e+00 -2.8697009442e+00 1.6568226126e+00 2.8697009442e+00 
41400 4.9858997315e+00 2.3924176301e-04 1.6568152349e+00 -2.8696881656e+00 1.6568152349e+00 2.8696881656e+00 
41500 4.9859000171e+00 2.3412673153e-04 1.6568080150e+00 -2.8696756604e+00 1.6568080150e+00 2.8696756604e+00 
41600 4.9859002989e+00 2.2912374186e-04 1.6568009494e+00 -2.8696634224e+00 1.6568009494e+00 2.8696634224e+00 
41700 4.9859005770e+00 2.2422998729e-04 1.6567940348e+00 -2.8696514459e+00 1.6567940348e+00 2.8696514459e+00 
41800 4.9859008514e+00 2.1944274247e-04 1.6567872678e+00 -2.8696397251e+00 1.6567872678e+00 2.8696397251e+00 
41900 4.9859011221e+00 2.1475936104e-04 1.6567806453e+00 -2.8696282546e+00 1.6567806453e+00 2.8696282546e+00 
42000 4.9859013893e+00 2.1017727339e-04 1.6567741640e+00 -2.8696170288e+00 1.6567741640e+00 2.8696170288e+00 
42100 4.9859016529e+00 2.0569398432e-04 1.6567678211e+00 -2.8696060424e+00 1.6567678211e+00 2.8696060424e+00 
42200 4.9859019130e+00 2.0130707095e-04 1.6567616134e+00 -2.8695952904e+00 1.6567616134e+00 2.8695952904e+00 
42300 4.9859021697e+00 1.9701418048e-04 1.6567555381e+00 -2.8695847677e+00 1.6567555381e+00 2.8695847677e+00 
42400 4.9859024230e+00 1.9281302820e-04 1.6567495923e+00 -2.8695744693e+00 1.6567495923e+00 2.8695744693e+00 
42500 4.9859026729e+00 1.8870139537e-04 1.6567437733e+00 -2.8695643904e+00 1.6567437733e+00 2.8695643904e+00 
42600 4.9859029195e+00 1.8467712728e-04 1.6567380783e+00 -2.8695545265e+00 1.6567380783e+00 2.8695545265e+00 
42700 4.9859031628e+00 1.8073813133e-04 1.6567325048e+00 -2.8695448729e+00 1.6567325048e+00 2.8695448729e+00 
42800 4.9859034030e+00 1.7688237511e-04 1.6567270502e+00 -2.8695354252e+00 1.6567270502e+00 2.8695354252e+00 
42900 4.9859036399e+00 1.7310788461e-04 1.6567217119e+00 -2.8695261789e+00 1.6567217119e+00 2.8695261789e+00 
43000 4.9859038737e+00 1.6941274237e-04 1.6567164875e+00 -2.8695171300e+00 1.6567164875e+00 2.8695171300e+00 
43100 4.9859041044e+00 1.6579508583e-04 1.6567113746e+00 -2.8695082742e+00 1.6567113746e+00 2.8695082742e+00 
43200 4.9859043321e+00 1.6225310554e-04 1.6567063708e+00 -2.8694996075e+00 1.6567063708e+00 2.8694996075e+00 
43300 4.9859045567e+00 1.5878504361e-04 1.6567014740e+00 -2.8694911259e+00 1.6567014740e+00 2.8694911259e+00 
43400 4.9859047784e+00 1.5538919204e-04 1.6566966818e+00 -2.8694828255e+00 1.6566966818e+00 2.8694828255e+00 
43500 4.9859049972e+00 1.5206389118e-04 1.6566919920e+00 -2.8694747027e+00 1.6566919920e+00 2.8694747027e+00 
43600 4.9859052131e+00 1.4880752823e-04 1.6566874026e+00 -2.8694667536e+00 1.6566874026e+00 2.8694667536e+00 
43700 4.9859054261e+00 1.4561853578e-04 1.6566829115e+00 -2.8694589748e+00 1.6566829115e+00 2.8694589748e+00 
43800 4.9859056363e+00 1.4249539032e-04 1.6566785167e+00 -2.8694513626e+00 1.6566785167e+00 2.8694513626e+00 
43900 4.9859058437e+00 1.3943661093e-04 1.6566742160e+00 -2.8694439137e+00 1.6566742160e+00 2.8694439137e+00 
44000 4.9859060485e+00 1.3644075787e-04 1.6566700077e+00 -2.8694366247e+00 1.6566700077e+00 2.8694366247e+00 
44100 4.9859062505e+00 1.3350643131e-04 1.6566658898e+00 -2.8694294922e+00 1.6566658898e+00 2.8694294922e+00 
44200 4.9859064498e+00 1.3063227002e-04 1.6566618604e+00 -2.8694225132e+00 1.6566618604e+00 2.8694225132e+00 
44300 4.9859066466e+00 1.2781695017e-04 1.6566579178e+00 -2.8694156843e+00 1.6566579178e+00 2.8694156843e+00 
44400 4.9859068407e+00 1.2505918411e-04 1.6566540601e+00 -2.8694090026e+00 1.6566540601e+00 2.8694090026e+00 
44500 4.9859070323e+00 1.2235771924e-04 1.6566502856e+00 -2.8694024651e+00 1.6566502856e+00 2.8694024651e+00 
44600 4.9859072214e+00 1.1971133682e-04 1.6566465927e+00 -2.8693960688e+00 1.6566465927e+00 2.8693960688e+00 
44700 4.9859074080e+00 1.1711885096e-04 1.6566429797e+00 -2.8693898108e+00 1.6566429797e+00 2.8693898108e+00 
44800 4.9859075921e+00 1.1457910748e-04 1.6566394448e+00 -2.8693836883e+00 1.6566394448e+00 2.8693836883e+00 
44900 4.9859077739e+00 1.1209098295e-04 1.6566359867e+00 -2.8693776985e+00 1.6566359867e+00 2.8693776985e+00 
45000 4.9859079532e+00 1.0965338365e-04 1.6566326036e+00 -2.8693718389e+00 1.6566326036e+00 2.8693718389e+00 
45100 4.9859081302e+00 1.0726524465e-04 1.6566292940e+00 -2.8693661066e+00 1.6566292940e+00 2.8693661066e+00 
45200 4.9859083049e+00 1.0492552881e-04 1.6566260566e+00 -2.8693604992e+00 1.6566260566e+00 2.8693604992e+00 
45300 4.9859084773e+00 1.0263322596e-04 1.6566228897e+00 -2.8693550140e+00 1.6566228897e+00 2.8693550140e+00 
45400 4.9859086474e+00 1.0038735197e-04 1.6566197921e+00 -2.8693496487e+00 1.6566197921e+00 2.8693496487e+00 
45500 4.9859088154e+00 9.8186947910e-05 1.6566167622e+00 -2.8693444008e+00 1.6566167622e+00 2.8693444008e+00 
45600 4.9859089811e+00 9.6031079246e-05 1.6566137987e+00 -2.8693392679e+00 1.6566137987e+00 2.8693392679e+00 
45700 4.9859091446e+00 9.3918835049e-05 1.6566109003e+00 -2.8693342477e+00 1.6566109003e+00 2.8693342477e+00 
45800 4.9859093061e+00 9.1849327218e-05 1.6566080656e+00 -2.8693293379e+00 1.6566080656e+00 2.8693293379e+00 
45900 4.9859094654e+00 8.9821689747e-05 1.6566052934e+00 -2.8693245363e+00 1.6566052934e+00 2.8693245363e+00 
46000 4.9859096226e+00 8.7835078008e-05 1.6566025824e+00 -2.8693198407e+00 1.6566025824e+00 2.8693198407e+00 
46100 4.9859097778e+00 8.5888668060e-05 1.6565999314e+00 -2.8693152489e+00 1.6565999314e+00 2.8693152489e+00 
46200 4.9859099310e+00 8.3981655979e-05 1.6565973390e+00 -2.8693107589e+00 1.6565973390e+00 2.8693107589e+00 
46300 4.9859100822e+00 8.2113257218e-05 1.6565948043e+00 -2.8693063686e+00 1.6565948043e+00 2.8693063686e+00 
46400 4.9859102314e+00 8.0282705981e-05 1.6565923259e+00 -2.8693020759e+00 1.6565923259e+00 2.8693020759e+00 
46500 4.9859103786e+00 7.8489254620e-05 1.6565899028e+00 -2.8692978789e+00 1.6565899028e+00 2.8692978789e+00 
46600 4.9859105240e+00 7.6732173055e-05 1.6565875338e+00 -2.8692937757e+00 1.6565875338e+00 2.8692937757e+00 
46700 4.9859106675e+00 7.5010748216e-05 1.6565852178e+00 -2.8692897643e+00 1.6565852178e+00 2.8692897643e+00 
46800 4.9859108091e+00 7.3324283501e-05 1.6565829538e+00 -2.8692858429e+00 1.6565829538e+00 2.8692858429e+00 
46900 4.9859109488e+00 7.1672098256e-05 1.6565807407e+00 -2.8692820097e+00 1.6565807407e+00 2.8692820097e+00 
47000 4.9859110868e+00 7.0053527264e-05 1.6565785774e+00 -2.8692782628e+00 1.6565785774e+00 2.8692782628e+00 
47100 4.9859112232e+00 6.9825712435e-05 1.6565785774e+00 -2.8692782628e+00 1.6565785774e+00 2.8692782628e+00 
47200 4.9859113577e+00 6.9604991464e-05 1.6565785774e+00 -2.8692782628e+00 1.6565785774e+00 2.8692782628e+00 
47300 4.9859114906e+00 6.9391153071e-05 1.6565785774e+00 -2.8692782628e+00 1.6565785774e+00 2.8692782628e+00 
47400 4.9859116217e+00 6.9183989324e-05 1.6565785774e+00 -2.8692782628e+00 1.6565785774e+00 2.8692782628e+00 
47500 4.9859117511e+00 6.8983295743e-05 1.6565785774e+00 -2.8692782628e+00 1.6565785774e+00 2.8692782628e+00 
47600 4.9859118788e+00 6.8788871370e-05 1.6565785774e+00 -2.8692782628e+00 1.6565785774e+00 2.8692782628e+00 
47700 4.9859120049e+00 6.8600518857e-05 1.6565785774e+00 -2.8692782628e+00 1.6565785774e+00 2.8692782628e+00 
47800 4.9859121293e+00 6.8418044527e-05 1.6565785774e+00 -2.8692782628e+00 1.6565785774e+00 2.8692782628e+00 
47900 4.9859122522e+00 6.8241258435e-05 1.6565785774e+00 -2.8692782628e+00 1.6565785774e+00 2.8692782628e+00 
48000 4.9859123734e+00 6.8069974427e-05 1.6565785774e+00 -2.8692782628e+00 1.6565785774e+00 2.8692782628e+00 
48100 4.9859124931e+00 6.7904010184e-05 1.6565785774e+00 -2.8692782628e+00 1.6565785774e+00 2.8692782628e+00 
48200 4.9859126112e+00 6.7743187258e-05 1.6565785774e+00 -2.8692782628e+00 1.6565785774e+00 2.8692782628e+00 
48300 4.9859127279e+00 6.7587331115e-05 1.6565785774e+00 -2.8692782628e+00 1.6565785774e+00 2.8692782628e+00 
48400 4.9859128430e+00 6.7436271152e-05 1.6565785774e+00 -2.8692782628e+00 1.6565785774e+00 2.8692782628e+00 
48500 4.9859129566e+00 6.7289840725e-05 1.6565785774e+00 -2.8692782628e+00 1.6565785774e+00 2.8692782628e+00 
48600 4.9859130688e+00 6.7147877157e-05 1.6565785774e+00 -2.8692782628e+00 1.6565785774e+00 2.8692782628e+00 
48700 4.9859131795e+00 6.7010221752e-05 1.6565785774e+00 -2.8692782628e+00 1.6565785774e+00 2.8692782628e+00 
48800 4.9859132888e+00 6.6876719796e-05 1.6565785774e+00 -2.8692782628e+00 1.6565785774e+00 2.8692782628e+00 
48900 4.9859133967e+00 6.6747220554e-05 1.6565785774e+00 -2.8692782628e+00 1.6565785774e+00 2.8692782628e+00 
49000 4.9859135032e+00 6.6621577262e-05 1.6565785774e+00 -2.8692782628e+00 1.6565785774e+00 2.8692782628e+00 
49100 4.9859136084e+00 6.6499647117e-05 1.6565785774e+00 -2.8692782628e+00 1.6565785774e+00 2.8692782628e+00 
49200 4.9859137122e+00 6.6381291256e-05 1.6565785774e+00 -2.8692782628e+00 1.6565785774e+00 2.8692782628e+00 
49300 4.9859138147e+00 6.6266374737e-05 1.6565785774e+00 -2.8692782628e+00 1.6565785774e+00 2.8692782628e+00 
49400 4.9859139158e+00 6.6154766511e-05 1.6565785774e+00 -2.8692782628e+00 1.6565785774e+00 2.8692782628e+00 
49500 4.9859140157e+00 6.6046339394e-05 1.6565785774e+00 -2.8692782628e+00 1.6565785774e+00 2.8692782628e+00 
49600 4.9859141143e+00 6.5940970030e-05 1.6565785774e+00 -2.8692782628e+00 1.6565785774e+00 2.8692782628e+00 
49700 4.9859142116e+00 6.5838538855e-05 1.6565785774e+00 -2.8692782628e+00 1.6565785774e+00 2.8692782628e+00 
49800 4.9859143077e+00 6.5738930056e-05 1.6565785774e+00 -2.8692782628e+00 1.6565785774e+00 2.8692782628e+00 
49900 4.9859144026e+00 6.5642031527e-05 1.6565785774e+00 -2.8692782628e+00 1.6565785774e+00 2.8692782628e+00 
50000 4.9859144962e+00 6.5547734819e-05 1.6565785774e+00 -2.8692782628e+00 1.6565785774e+00 2.8692782628e+00 
50100 4.9859145887e+00 6.5455935095e-05 1.6565785774e+00 -2.8692782628e+00 1.6565785774e+00 2.8692782628e+00 
50200 4.9859146800e+00 6.5366531072e-05 1.6565785774e+00 -2.8692782628e+00 1.6565785774e+00 2.8692782628e+00 
50300 4.9859147701e+00 6.5279424969e-05 1.6565785774e+00 -2.8692782628e+00 1.6565785774e+00 2.8692782628e+00 
50400 4.9859148591e+00 6.5194522452e-05 1.6565785774e+00 -2.8692782628e+00 1.6565785774e+00 2.8692782628e+00 
50500 4.9859149469e+00 6.5111732567e-05 1.6565785774e+00 -2.8692782628e+00 1.6565785774e+00 2.8692782628e+00 
50600 4.9859150336e+00 6.5030967691e-05 1.6565785774e+00 -2.8692782628e+00 1.6565785774e+00 2.8692782628e+00 
50700 4.9859151193e+00 6.4952143457e-05 1.6565785774e+00 -2.8692782628e+00 1.6565785774e+00 2.8692782628e+00 
50800 4.9859152038e+00 6.4875178700e-05 1.6565785774e+00 -2.8692782628e+00 1.6565785774e+00 2.8692782628e+00 
50900 4.9859152873e+00 6.4799995385e-05 1.6565785774e+00 -2.8692782628e+00 1.6565785774e+00 2.8692782628e+00 
51000 4.9859153697e+00 6.4726518543e-05 1.6565785774e+00 -2.8692782628e+00 1.6565785774e+00 2.8692782628e+00 
51100 4.9859154511e+00 6.4654676206e-05 1.6565785774e+00 -2.8692782628e+00 1.6565785774e+00 2.8692782628e+00 
51200 4.9859155314e+00 6.4584399336e-05 1.6565785774e+00 -2.8692782628e+00 1.6565785774e+00 2.8692782628e+00 
51300 4.9859156107e+00 6.4515621755e-05 1.6565785774e+00 -2.8692782628e+00 1.6565785774e+00 2.8692782628e+00 
51400 4.9859156891e+00 6.4448280076e-05 1.6565785774e+00 -2.8692782628e+00 1.6565785774e+00 2.8692782628e+00 
51500 4.9859157664e+00 6.4382313639e-05 1.6565785774e+00 -2.8692782628e+00 1.6565785774e+00 2.8692782628e+00 
51600 4.9859158427e+00 6.4317664432e-05 1.6565785774e+00 -2.8692782628e+00 1.6565785774e+00 2.8692782628e+00 
51700 4.9859159181e+00 6.4254277027e-05 1.6565785774e+00 -2.8692782628e+00 1.6565785774e+00 2.8692782628e+00 
51800 4.9859159926e+00 6.4192098505e-05 1.6565785774e+00 -2.8692782628e+00 1.6565785774e+00 2.8692782628e+00 
51900 4.9859160661e+00 6.4131078391e-05 1.6565785774e+00 -2.8692782628e+00 1.6565785774e+00 2.8692782628e+00 
52000 4.9859161387e+00 6.4071168578e-05 1.6565785774e+00 -2.8692782628e+00 1.6565785774e+00 2.8692782628e+00 
52100 4.9859162103e+00 6.4012323263e-05 1.6565785774e+00 -2.8692782628e+00 1.6565785774e+00 2.8692782628e+00 
52200 4.9859162811e+00 6.3954498872e-05 1.6565785774e+00 -2.8692782628e+00 1.6565785774e+00 2.8692782628e+00 
52300 4.9859163510e+00 6.3897653993e-05 1.6565785774e+00 -2.8692782628e+00 1.6565785774e+00 2.8692782628e+00 
52400 4.9859164200e+00 6.3841749312e-05 1.6565785774e+00 -2.8692782628e+00 1.6565785774e+00 2.8692782628e+00 
52500 4.9859164881e+00 6.3786747532e-05 1.6565785774e+00 -2.8692782628e+00 1.6565785774e+00 2.8692782628e+00 
52600 4.9859165554e+00 6.3732613321e-05 1.6565785774e+00 -2.8692782628e+00 1.6565785774e+00 2.8692782628e+00 
52700 4.9859166218e+00 6.3679313238e-05 1.6565785774e+00 -2.8692782628e+00 1.6565785774e+00 2.8692782628e+00 
52800 4.9859166874e+00 6.3626815664e-05 1.6565785774e+00 -2.8692782628e+00 1.6565785774e+00 2.8692782628e+00 
52900 4.9859167522e+00 6.3575090743e-05 1.6565785774e+00 -2.8692782628e+00 1.6565785774e+00 2.8692782628e+00 
53000 4.9859168161e+00 6.3524110315e-05 1.6565785774e+00 -2.8692782628e+00 1.6565785774e+00 2.8692782628e+00 
53100 4.9859168793e+00 6.3473847852e-05 1.6565785774e+00 -2.8692782628e+00 1.6565785774e+00 2.8692782628e+00 
53200 4.9859169417e+00 6.3424278400e-05 1.6565785774e+00 -2.8692782628e+00 1.6565785774e+00 2.8692782628e+00 
53300 4.9859170032e+00 6.3375378512e-05 1.6565785774e+00 -2.8692782628e+00 1.6565785774e+00 2.8692782628e+00 
53400 4.9859170641e+00 6.3327126192e-05 1.6565785774e+00 -2.8692782628e+00 1.6565785774e+00 2.8692782628e+00 
53500 4.9859171241e+00 6.3279500834e-05 1.6565785774e+00 -2.8692782628e+00 1.6565785774e+00 2.8692782628e+00 
53600 4.9859171834e+00 6.3232483168e-05 1.6565785774e+00 -2.8692782628e+00 1.6565785774e+00 2.8692782628e+00 
53700 4.9859172420e+00 6.3186055197e-05 1.6565785774e+00 -2.8692782628e+00 1.6565785774e+00 2.8692782628e+00 
53800 4.9859172999e+00 6.3140200148e-05 1.6565785774e+00 -2.8692782628e+00 1.6565785774e+00 2.8692782628e+00 
53900 4.9859173570e+00 6.3094902412e-05 1.6565785774e+00 -2.8692782628e+00 1.6565785774e+00 2.8692782628e+00 
54000 4.9859174134e+00 6.3050147497e-05 1.6565785774e+00 -2.8692782628e+00 1.6565785774e+00 2.8692782628e+00 
54100 4.9859174691e+00 6.3005921973e-05 1.6565785774e+00 -2.8692782628e+00 1.6565785774e+00 2.8692782628e+00 
54200 4.9859175241e+00 6.2962213419e-05 1.6565785774e+00 -2.8692782628e+00 1.6565785774e+00 2.8692782628e+00 
54300 4.9859175784e+00 6.2919010377e-05 1.6565785774e+00 -2.8692782628e+00 1.6565785774e+00 2.8692782628e+00 
54400 4.9859176321e+00 6.2876302308e-05 1.6565785774e+00 -2.8692782628e+00 1.6565785774e+00 2.8692782628e+00 
54500 4.9859176851e+00 6.2834079538e-05 1.6565785774e+00 -2.8692782628e+00 1.6565785774e+00 2.8692782628e+00 
54600 4.9859177374e+00 6.2792333214e-05 1.6565785774e+00 -2.8692782628e+00 1.6565785774e+00 2.8692782628e+00 
54700 4.9859177891e+00 6.2751055266e-05 1.6565785774e+00 -2.8692782628e+00 1.6565785774e+00 2.8692782628e+00 
54800 4.9859178401e+00 6.2710238357e-05 1.6565785774e+00 -2.8692782628e+00 1.6565785774e+00 2.8692782628e+00 
54900 4.9859178905e+00 6.2669875844e-05 1.6565785774e+00 -2.8692782628e+00 1.6565785774e+00 2.8692782628e+00 
55000 4.9859179403e+00 6.2629961742e-05 1.6565785774e+00 -2.8692782628e+00 1.6565785774e+00 2.8692782628e+00 
55100 4.9859179895e+00 6.2590490678e-05 1.6565785774e+00 -2.8692782628e+00 1.6565785774e+00 2.8692782628e+00 
55200 4.9859180380e+00 6.2551457860e-05 1.6565785774e+00 -2.8692782628e+00 1.6565785774e+00 2.8692782628e+00 
55300 4.9859180860e+00 6.2512859033e-05 1.6565785774e+00 -2.8692782628e+00 1.6565785774e+00 2.8692782628e+00 
55400 4.9859181334e+00 6.2474690452e-05 1.6565785774e+00 -2.8692782628e+00 1.6565785774e+00 2.8692782628e+00 
55500 4.9859181801e+00 6.2436948844e-05 1.6565785774e+00 -2.8692782628e+00 1.6565785774e+00 2.8692782628e+00 
55600 4.9859182263e+00 6.2399631372e-05 1.6565785774e+00 -2.8692782628e+00 1.6565785774e+00 2.8692782628e+00 
55700 4.9859182720e+00 6.2362735612e-05 1.6565785774e+00 -2.8692782628e+00 1.6565785774e+00 2.8692782628e+00 
55800 4.9859183170e+00 6.2326259514e-05 1.6565785774e+00 -2.8692782628e+00 1.6565785774e+00 2.8692782628e+00 
55900 4.9859183615e+00 6.2290201380e-05 1.6565785774e+00 -2.8692782628e+00 1.6565785774e+00 2.8692782628e+00 
56000 4.9859184055e+00 6.2254559829e-05 1.6565785774e+00 -2.8692782628e+00 1.6565785774e+00 2.8692782628e+00 
56100 4.9859184489e+00 6.2219333776e-05 1.6565785774e+00 -2.8692782628e+00 1.6565785774e+00 2.8692782628e+00 
56200 4.9859184918e+00 6.2184522404e-05 1.6565785774e+00 -2.8692782628e+00 1.6565785774e+00 2.8692782628e+00 
56300 4.9859185341e+00 6.2150125136e-05 1.6565785774e+00 -2.8692782628e+00 1.6565785774e+00 2.8692782628e+00 
56400 4.9859185760e+00 6.2116141618e-05 1.6565785774e+00 -2.8692782628e+00 1.6565785774e+00 2.8692782628e+00 
56500 4.9859186173e+00 6.2082571692e-05 1.6565785774e+00 -2.8692782628e+00 1.6565785774e+00 2.8692782628e+00 
56600 4.9859186581e+00 6.2049415376e-05 1.6565785774e+00 -2.8692782628e+00 1.6565785774e+00 2.8692782628e+00 
56700 4.9859186984e+00 6.2016672840e-05 1.6565785774e+00 -2.8692782628e+00 1.6565785774e+00 2.8692782628e+00 
56800 4.9859187382e+00 6.1984344393e-05 1.6565785774e+00 -2.8692782628e+00 1.6565785774e+00 2.8692782628e+00 
56900 4.9859187775e+00 6.1952430458e-05 1.6565785774e+00 -2.8692782628e+00 1.6565785774e+00 2.8692782628e+00 
57000 4.9859188164e+00 6.1920931557e-05 1.6565785774e+00 -2.8692782628e+00 1.6565785774e+00 2.8692782628e+00 
57100 4.9859188547e+00 6.1889848296e-05 1.6565785774e+00 -2.8692782628e+00 1.6565785774e+00 2.8692782628e+00 
57200 4.9859188926e+00 6.1859181345e-05 1.6565785774e+00 -2.8692782628e+00 1.6565785774e+00 2.8692782628e+00 
57300 4.9859189301e+00 6.1828931429e-05 1.6565785774e+00 -2.8692782628e+00 1.6565785774e+00 2.8692782628e+00 
57400 4.9859189670e+00 6.1799099305e-05 1.6565785774e+00 -2.8692782628e+00 1.6565785774e+00 2.8692782628e+00 
57500 4.9859190036e+00 6.1769685755e-05 1.6565785774e+00 -2.8692782628e+00 1.6565785774e+00 2.8692782628e+00 
57600 4.9859190396e+00 6.1740691575e-05 1.6565785774e+00 -2.8692782628e+00 1.6565785774e+00 2.8692782628e+00 
57700 4.9859190752e+00 6.1712117558e-05 1.6565785774e+00 -2.8692782628e+00 1.6565785774e+00 2.8692782628e+00 
57800 4.9859191104e+00 6.1683964484e-05 1.6565785774e+00 -2.8692782628e+00 1.6565785774e+00 2.8692782628e+00 
57900 4.9859191452e+00 6.1656233112e-05 1.6565785774e+00 -2.8692782628e+00 1.6565785774e+00 2.8692782628e+00 
58000 4.9859191795e+00 6.1628924171e-05 1.6565785774e+00 -2.8692782628e+00 1.6565785774e+00 2.8692782628e+00 
58100 4.9859192135e+00 6.1602038345e-05 1.6565785774e+00 -2.8692782628e+00 1.6565785774e+00 2.8692782628e+00 
58200 4.9859192470e+00 6.1575576272e-05 1.6565785774e+00 -2.8692782628e+00 1.6565785774e+00 2.8692782628e+00 
58300 4.9859192801e+00 6.1549538530e-05 1.6565785774e+00 -2.8692782628e+00 1.6565785774e+00 2.8692782628e+00 
58400 4.9859193127e+00 6.1523925637e-05 1.6565785774e+00 -2.8692782628e+00 1.6565785774e+00 2.8692782628e+00 
58500 4.9859193450e+00 6.1498738036e-05 1.6565785774e+00 -2.8692782628e+00 1.6565785774e+00 2.8692782628e+00 
58600 4.9859193769e+00 6.1473976098e-05 1.6565785774e+00 -2.8692782628e+00 1.6565785774e+00 2.8692782628e+00 
58700 4.9859194084e+00 6.1449640106e-05 1.6565785774e+00 -2.8692782628e+00 1.6565785774e+00 2.8692782628e+00 
58800 4.9859194396e+00 6.1425730263e-05 1.6565785774e+00 -2.8692782628e+00 1.6565785774e+00 2.8692782628e+00 
58900 4.9859194703e+00 6.1402246673e-05 1.6565785774e+00 -2.8692782628e+00 1.6565785774e+00 2.8692782628e+00 
59000 4.9859195007e+00 6.1379189353e-05 1.6565785774e+00 -2.8692782628e+00 1.6565785774e+00 2.8692782628e+00 
59100 4.9859195307e+00 6.1356558214e-05 1.6565785774e+00 -2.8692782628e+00 1.6565785774e+00 2.8692782628e+00 
59200 4.9859195603e+00 6.1334353068e-05 1.6565785774e+00 -2.8692782628e+00 1.6565785774e+00 2.8692782628e+00 
59300 4.9859195896e+00 6.1312573624e-05 1.6565785774e+00 -2.8692782628e+00 1.6565785774e+00 2.8692782628e+00 
59400 4.9859196185e+00 6.1291219483e-05 1.6565785774e+00 -2.8692782628e+00 1.6565785774e+00 2.8692782628e+00 
59500 4.9859196471e+00 6.1270290135e-05 1.6565785774e+00 -2.8692782628e+00 1.6565785774e+00 2.8692782628e+00 
59600 4.9859196753e+00 6.1249784963e-05 1.6565785774e+00 -2.8692782628e+00 1.6565785774e+00 2.8692782628e+00 
59700 4.9859197032e+00 6.1229703240e-05 1.6565785774e+00 -2.8692782628e+00 1.6565785774e+00 2.8692782628e+00 
59800 4.9859197307e+00 6.1210044121e-05 1.6565785774e+00 -2.8692782628e+00 1.6565785774e+00 2.8692782628e+00 
59900 4.9859197579e+00 6.1190806655e-05 1.6565785774e+00 -2.8692782628e+00 1.6565785774e+00 2.8692782628e+00 
60000 4.9859197848e+00 6.1171989775e-05 1.6565785774e+00 -2.8692782628e+00 1.6565785774e+00 2.8692782628e+00 
60100 4.9859198114e+00 6.1153592302e-05 1.6565785774e+00 -2.8692782628e+00 1.6565785774e+00 2.8692782628e+00 
60200 4.9859198376e+00 6.1135612942e-05 1.6565785774e+00 -2.8692782628e+00 1.6565785774e+00 2.8692782628e+00 
60300 4.9859198635e+00 6.1118050293e-05 1.6565785774e+00 -2.8692782628e+00 1.6565785774e+00 2.8692782628e+00 
60400 4.9859198891e+00 6.1100902842e-05 1.6565785774e+00 -2.8692782628e+00 1.6565785774e+00 2.8692782628e+00 
60500 4.9859199144e+00 6.1084168960e-05 1.6565785774e+00 -2.8692782628e+00 1.6565785774e+00 2.8692782628e+00 
60600 4.9859199394e+00 6.1067846917e-05 1.6565785774e+00 -2.8692782628e+00 1.6565785774e+00 2.8692782628e+00 
60700 4.9859199640e+00 6.1051934870e-05 1.6565785774e+00 -2.8692782628e+00 1.6565785774e+00 2.8692782628e+00 
60800 4.9859199884e+00 6.1036430871e-05 1.6565785774e+00 -2.8692782628e+00 1.6565785774e+00 2.8692782628e+00 
60900 4.9859200125e+00 6.1021332871e-05 1.6565785774e+00 -2.8692782628e+00 1.6565785774e+00 2.8692782628e+00 
61000 4.9859200363e+00 6.1006638714e-05 1.6565785774e+00 -2.8692782628e+00 1.6565785774e+00 2.8692782628e+00 
61100 4.9859200598e+00 6.0992346148e-05 1.6565785774e+00 -2.8692782628e+00 1.6565785774e+00 2.8692782628e+00 
61200 4.9859200830e+00 6.0978452821e-05 1.6565785774e+00 -2.8692782628e+00 1.6565785774e+00 2.8692782628e+00 
61300 4.9859201060e+00 6.0964956283e-05 1.6565785774e+00 -2.8692782628e+00 1.6565785774e+00 2.8692782628e+00 
61400 4.9859201287e+00 6.0951853994e-05 1.6565785774e+00 -2.8692782628e+00 1.6565785774e+00 2.8692782628e+00 
61500 4.9859201510e+00 6.0939143322e-05 1.6565785774e+00 -2.8692782628e+00 1.6565785774e+00 2.8692782628e+00 
61600 4.9859201732e+00 6.0926821546e-05 1.6565785774e+00 -2.8692782628e+00 1.6565785774e+00 2.8692782628e+00 
61700 4.9859201950e+00 6.0914885859e-05 1.6565785774e+00 -2.8692782628e+00 1.6565785774e+00 2.8692782628e+00 
61800 4.9859202166e+00 6.0903333372e-05 1.6565785774e+00 -2.8692782628e+00 1.6565785774e+00 2.8692782628e+00 
61900 4.9859202380e+00 6.0892161114e-05 1.6565785774e+00 -2.8692782628e+00 1.6565785774e+00 2.8692782628e+00 
62000 4.9859202590e+00 6.0881366040e-05 1.6565785774e+00 -2.8692782628e+00 1.6565785774e+00 2.8692782628e+00 
62100 4.9859202799e+00 6.0870945026e-05 1.6565785774e+00 -2.8692782628e+00 1.6565785774e+00 2.8692782628e+00 
62200 4.9859203004e+00 6.0860894879e-05 1.6565785774e+00 -2.8692782628e+00 1.6565785774e+00 2.8692782628e+00 
62300 4.9859203208e+00 6.0851212337e-05 1.6565785774e+00 -2.8692782628e+00 1.6565785774e+00 2.8692782628e+00 
62400 4.9859203408e+00 6.0841894069e-05 1.6565785774e+00 -2.8692782628e+00 1.6565785774e+00 2.8692782628e+00 
62500 4.9859203607e+00 6.0832936688e-05 1.6565785774e+00 -2.8692782628e+00 1.6565785774e+00 2.8692782628e+00 
62600 4.9859203803e+00 6.0824336740e-05 1.6565785774e+00 -2.8692782628e+00 1.6565785774e+00 2.8692782628e+00 
62700 4.9859203996e+00 6.0816090720e-05 1.6565785774e+00 -2.8692782628e+00 1.6565785774e+00 2.8692782628e+00 
62800 4.9859204188e+00 6.0808195063e-05 1.6565785774e+00 -2.8692782628e+00 1.6565785774e+00 2.8692782628e+00 
62900 4.9859204377e+00 6.0800646158e-05 1.6565785774e+00 -2.8692782628e+00 1.6565785774e+00 2.8692782628e+00 
63000 4.9859204564e+00 6.0793440345e-05 1.6565785774e+00 -2.8692782628e+00 1.6565785774e+00 2.8692782628e+00 
63100 4.9859204748e+00 6.0786573918e-05 1.6565785774e+00 -2.8692782628e+00 1.6565785774e+00 2.8692782628e+00 
63200 4.9859204930e+00 6.0780043128e-05 1.6565785774e+00 -2.8692782628e+00 1.6565785774e+00 2.8692782628e+00 
63300 4.9859205111e+00 6.0773844190e-05 1.6565785774e+00 -2.8692782628e+00 1.6565785774e+00 2.8692782628e+00 
63400 4.9859205288e+00 6.0767973281e-05 1.6565785774e+00 -2.8692782628e+00 1.6565785774e+00 2.8692782628e+00 
63500 4.9859205464e+00 6.0762426544e-05 1.6565785774e+00 -2.8692782628e+00 1.6565785774e+00 2.8692782628e+00 
63600 4.9859205638e+00 6.0757200093e-05 1.6565785774e+00 -2.8692782628e+00 1.6565785774e+00 2.8692782628e+00 
63700 4.9859205810e+00 6.0752290011e-05 1.6565785774e+00 -2.8692782628e+00 1.6565785774e+00 2.8692782628e+00 
63800 4.9859205979e+00 6.0747692360e-05 1.6565785774e+00 -2.8692782628e+00 1.6565785774e+00 2.8692782628e+00 
63900 4.9859206147e+00 6.0743403178e-05 1.6565785774e+00 -2.8692782628e+00 1.6565785774e+00 2.8692782628e+00 
64000 4.9859206312e+00 6.0739418481e-05 1.6565785774e+00 -2.8692782628e+00 1.6565785774e+00 2.8692782628e+00 
64100 4.9859206476e+00 6.0735734272e-05 1.6565785774e+00 -2.8692782628e+00 1.6565785774e+00 2.8692782628e+00 
64200 4.9859206638e+00 6.0732346535e-05 1.6565785774e+00 -2.8692782628e+00 1.6565785774e+00 2.8692782628e+00 
64300 4.9859206797e+00 6.0729251246e-05 1.6565785774e+00 -2.8692782628e+00 1.6565785774e+00 2.8692782628e+00 
64400 4.9859206955e+00 6.0726444368e-05 1.6565785774e+00 -2.8692782628e+00 1.6565785774e+00 2.8692782628e+00 
64500 4.9859207111e+00 6.0723921860e-05 1.6565785774e+00 -2.8692782628e+00 1.6565785774e+00 2.8692782628e+00 
64600 4.9859207265e+00 6.0721679672e-05 1.6565785774e+00 -2.8692782628e+00 1.6565785774e+00 2.8692782628e+00 
64700 4.9859207417e+00 6.0719713755e-05 1.6565785774e+00 -2.8692782628e+00 1.6565785774e+00 2.8692782628e+00 
64800 4.9859207568e+00 6.0718020056e-05 1.6565785774e+00 -2.8692782628e+00 1.6565785774e+00 2.8692782628e+00 
64900 4.9859207716e+00 6.0716594528e-05 1.6565785774e+00 -2.8692782628e+00 1.6565785774e+00 2.8692782628e+00 
65000 4.9859207863e+00 6.0715433124e-05 1.6565785774e+00 -2.8692782628e+00 1.6565785774e+00 2.8692782628e+00 
65100 4.9859208008e+00 6.0714531805e-05 1.6565785774e+00 -2.8692782628e+00 1.6565785774e+00 2.8692782628e+00 
65200 4.9859208152e+00 6.0713886538e-05 1.6565785774e+00 -2.8692782628e+00 1.6565785774e+00 2.8692782628e+00 
65300 4.9859208293e+00 6.0713493300e-05 1.6565785774e+00 -2.8692782628e+00 1.6565785774e+00 2.8692782628e+00 
65400 4.9859208433e+00 6.0713348081e-05 1.6565785774e+00 -2.8692782628e+00 1.6565785774e+00 2.8692782628e+00 
65500 4.9859208571e+00 6.0713446883e-05 1.6565785774e+00 -2.8692782628e+00 1.6565785774e+00 2.8692782628e+00 
65600 4.9859208708e+00 6.0713785723e-05 1.6565785774e+00 -2.8692782628e+00 1.6565785774e+00 2.8692782628e+00 
65700 4.9859208843e+00 6.0714360634e-05 1.6565785774e+00 -2.8692782628e+00 1.6565785774e+00 2.8692782628e+00 
65800 4.9859208977e+00 6.0715167670e-05 1.6565785774e+00 -2.8692782628e+00 1.6565785774e+00 2.8692782628e+00 
65900 4.9859209108e+00 6.0716202901e-05 1.6565785774e+00 -2.8692782628e+00 1.6565785774e+00 2.8692782628e+00 
66000 4.9859209239e+00 6.0717462421e-05 1.6565785774e+00 -2.8692782628e+00 1.6565785774e+00 2.8692782628e+00 
66100 4.9859209367e+00 6.0718942345e-05 1.6565785774e+00 -2.8692782628e+00 1.6565785774e+00 2.8692782628e+00 
66200 4.9859209494e+00 6.0720638812e-05 1.6565785774e+00 -2.8692782628e+00 1.6565785774e+00 2.8692782628e+00 
66300 4.9859209620e+00 6.0722547988e-05 1.6565785774e+00 -2.8692782628e+00 1.6565785774e+00 2.8692782628e+00 
66400 4.9859209744e+00 6.0724666064e-05 1.6565785774e+00 -2.8692782628e+00 1.6565785774e+00 2.8692782628e+00 
66500 4.9859209867e+00 6.0726989257e-05 1.6565785774e+00 -2.8692782628e+00 1.6565785774e+00 2.8692782628e+00 
66600 4.9859209988e+00 6.0729513817e-05 1.6565785774e+00 -2.8692782628e+00 1.6565785774e+00 2.8692782628e+00 
66700 4.9859210108e+00 6.0732236020e-05 1.6565785774e+00 -2.8692782628e+00 1.6565785774e+00 2.8692782628e+00 
66800 4.9859210226e+00 6.0735152176e-05 1.6565785774e+00 -2.8692782628e+00 1.6565785774e+00 2.8692782628e+00 
66900 4.9859210343e+00 6.0738258622e-05 1.6565785774e+00 -2.8692782628e+00 1.6565785774e+00 2.8692782628e+00 
67000 4.9859210459e+00 6.0741551732e-05 1.6565785774e+00 -2.8692782628e+00 1.6565785774e+00 2.8692782628e+00 
67100 4.9859210573e+00 6.0745027913e-05 1.6565785774e+00 -2.8692782628e+00 1.6565785774e+00 2.8692782628e+00 
67200 4.9859210686e+00 6.0748683603e-05 1.6565785774e+00 -2.8692782628e+00 1.6565785774e+00 2.8692782628e+00 
67300 4.9859210798e+00 6.0752515279e-05 1.6565785774e+00 -2.8692782628e+00 1.6565785774e+00 2.8692782628e+00 
67400 4.9859210908e+00 6.0756519450e-05 1.6565785774e+00 -2.8692782628e+00 1.6565785774e+00 2.8692782628e+00 
67500 4.9859211017e+00 6.0760692665e-05 1.6565785774e+00 -2.8692782628e+00 1.6565785774e+00 2.8692782628e+00 
67600 4.9859211124e+00 6.0765031506e-05 1.6565785774e+00 -2.8692782628e+00 1.6565785774e+00 2.8692782628e+00 
67700 4.9859211231e+00 6.0769532595e-05 1.6565785774e+00 -2.8692782628e+00 1.6565785774e+00 2.8692782628e+00 
67800 4.9859211336e+00 6.0774192591e-05 1.6565785774e+00 -2.8692782628e+00 1.6565785774e+00 2.8692782628e+00 
67900 4.9859211440e+00 6.0779008191e-05 1.6565785774e+00 -2.8692782628e+00 1.6565785774e+00 2.8692782628e+00 
68000 4.9859211542e+00 6.0783976132e-05 1.6565785774e+00 -2.8692782628e+00 1.6565785774e+00 2.8692782628e+00 
68100 4.9859211644e+00 6.0789093188e-05 1.6565785774e+00 -2.8692782628e+00 1.6565785774e+00 2.8692782628e+00 
68200 4.9859211744e+00 6.0794356174e-05 1.6565785774e+00 -2.8692782628e+00 1.6565785774e+00 2.8692782628e+00 
68300 4.9859211843e+00 6.0799761945e-05 1.6565785774e+00 -2.8692782628e+00 1.6565785774e+00 2.8692782628e+00 
68400 4.9859211941e+00 6.0805307393e-05 1.6565785774e+00 -2.8692782628e+00 1.6565785774e+00 2.8692782628e+00 
68500 4.9859212038e+00 6.0810989454e-05 1.6565785774e+00 -2.8692782628e+00 1.6565785774e+00 2.8692782628e+00 
68600 4.9859212133e+00 6.0816805101e-05 1.6565785774e+00 -2.8692782628e+00 1.6565785774e+00 2.8692782628e+00 
68700 4.9859212228e+00 6.0822751349e-05 1.6565785774e+00 -2.8692782628e+00 1.6565785774e+00 2.8692782628e+00 
68800 4.9859212321e+00 6.0828825254e-05 1.6565785774e+00 -2.8692782628e+00 1.6565785774e+00 2.8692782628e+00 
68900 4.9859212413e+00 6.0835023911e-05 1.6565785774e+00 -2.8692782628e+00 1.6565785774e+00 2.8692782628e+00 
69000 4.9859212504e+00 6.0841344457e-05 1.6565785774e+00 -2.8692782628e+00 1.6565785774e+00 2.8692782628e+00 
69100 4.9859212594e+00 6.0847784068e-05 1.6565785774e+00 -2.8692782628e+00 1.6565785774e+00 2.8692782628e+00 
69200 4.9859212683e+00 6.0854339962e-05 1.6565785774e+00 -2.8692782628e+00 1.6565785774e+00 2.8692782628e+00 
69300 4.9859212771e+00 6.0861009398e-05 1.6565785774e+00 -2.8692782628e+00 1.6565785774e+00 2.8692782628e+00 
69400 4.9859212858e+00 6.0867789671e-05 1.6565785774e+00 -2.8692782628e+00 1.6565785774e+00 2.8692782628e+00 
69500 4.9859212944e+00 6.0874678123e-05 1.6565785774e+00 -2.8692782628e+00 1.6565785774e+00 2.8692782628e+00 
69600 4.9859213029e+00 6.0881672131e-05 1.6565785774e+00 -2.8692782628e+00 1.6565785774e+00 2.8692782628e+00 
69700 4.9859213113e+00 6.0888769115e-05 1.6565785774e+00 -2.8692782628e+00 1.6565785774e+00 2.8692782628e+00 
69800 4.9859213196e+00 6.0895966533e-05 1.6565785774e+00 -2.8692782628e+00 1.6565785774e+00 2.8692782628e+00 
69900 4.9859213278e+00 6.0903261882e-05 1.6565785774e+00 -2.8692782628e+00 1.6565785774e+00 2.8692782628e+00 
70000 4.9859213359e+00 6.0910652702e-05 1.6565785774e+00 -2.8692782628e+00 1.6565785774e+00 2.8692782628e+00 
70100 4.9859213439e+00 6.0918136568e-05 1.6565785774e+00 -2.8692782628e+00 1.6565785774e+00 2.8692782628e+00 
70200 4.9859213518e+00 6.0925711097e-05 1.6565785774e+00 -2.8692782628e+00 1.6565785774e+00 2.8692782628e+00 
70300 4.9859213596e+00 6.0933373942e-05 1.6565785774e+00 -2.8692782628e+00 1.6565785774e+00 2.8692782628e+00 
70400 4.9859213673e+00 6.0941122798e-05 1.6565785774e+00 -2.8692782628e+00 1.6565785774e+00 2.8692782628e+00 
70500 4.9859213749e+00 6.0948955393e-05 1.6565785774e+00 -2.8692782628e+00 1.6565785774e+00 2.8692782628e+00 
70600 4.9859213825e+00 6.0956869497e-05 1.6565785774e+00 -2.8692782628e+00 1.6565785774e+00 2.8692782628e+00 
70700 4.9859213899e+00 6.0964862916e-05 1.6565785774e+00 -2.8692782628e+00 1.6565785774e+00 2.8692782628e+00 
70800 4.9859213973e+00 6.0972933492e-05 1.6565785774e+00 -2.8692782628e+00 1.6565785774e+00 2.8692782628e+00 
70900 4.9859214046e+00 6.0981079105e-05 1.6565785774e+00 -2.8692782628e+00 1.6565785774e+00 2.8692782628e+00 
71000 4.9859214117e+00 6.0989297671e-05 1.6565785774e+00 -2.8692782628e+00 1.6565785774e+00 2.8692782628e+00 
71100 4.9859214189e+00 6.0997587140e-05 1.6565785774e+00 -2.8692782628e+00 1.6565785774e+00 2.8692782628e+00 
71200 4.9859214259e+00 6.1005945502e-05 1.6565785774e+00 -2.8692782628e+00 1.6565785774e+00 2.8692782628e+00 
71300 4.9859214328e+00 6.1014370778e-05 1.6565785774e+00 -2.8692782628e+00 1.6565785774e+00 2.8692782628e+00 
71400 4.9859214397e+00 6.1022861024e-05 1.6565785774e+00 -2.8692782628e+00 1.6565785774e+00 2.8692782628e+00 
71500 4.9859214465e+00 6.1031414334e-05 1.6565785774e+00 -2.8692782628e+00 1.6565785774e+00 2.8692782628e+00 
71600 4.9859214532e+00 6.1040028830e-05 1.6565785774e+00 -2.8692782628e+00 1.6565785774e+00 2.8692782628e+00 
71700 4.9859214598e+00 6.1048702673e-05 1.6565785774e+00 -2.8692782628e+00 1.6565785774e+00 2.8692782628e+00 
71800 4.9859214663e+00 6.1057434055e-05 1.6565785774e+00 -2.8692782628e+00 1.6565785774e+00 2.8692782628e+00 
71900 4.9859214728e+00 6.1066221198e-05 1.6565785774e+00 -2.8692782628e+00 1.6565785774e+00 2.8692782628e+00 
72000 4.9859214792e+00 6.1075062360e-05 1.6565785774e+00 -2.8692782628e+00 1.6565785774e+00 2.8692782628e+00 
72100 4.9859214855e+00 6.1083955829e-05 1.6565785774e+00 -2.8692782628e+00 1.6565785774e+00 2.8692782628e+00 
72200 4.9859214918e+00 6.1092899924e-05 1.6565785774e+00 -2.8692782628e+00 1.6565785774e+00 2.8692782628e+00 
72300 4.9859214979e+00 6.1101892994e-05 1.6565785774e+00 -2.8692782628e+00 1.6565785774e+00 2.8692782628e+00 
72400 4.9859215040e+00 6.1110933422e-05 1.6565785774e+00 -2.8692782628e+00 1.6565785774e+00 2.8692782628e+00 
72500 4.9859215101e+00 6.1120019616e-05 1.6565785774e+00 -2.8692782628e+00 1.6565785774e+00 2.8692782628e+00 
72600 4.9859215160e+00 6.1129150017e-05 1.6565785774e+00 -2.8692782628e+00 1.6565785774e+00 2.8692782628e+00 
72700 4.9859215219e+00 6.1138323092e-05 1.6565785774e+00 -2.8692782628e+00 1.6565785774e+00 2.8692782628e+00 
72800 4.9859215277e+00 6.1147537341e-05 1.6565785774e+00 -2.8692782628e+00 1.6565785774e+00 2.8692782628e+00 
72900 4.9859215335e+00 6.1156791287e-05 1.6565785774e+00 -2.8692782628e+00 1.6565785774e+00 2.8692782628e+00 
73000 4.9859215392e+00 6.1166083484e-05 1.6565785774e+00 -2.8692782628e+00 1.6565785774e+00 2.8692782628e+00 
73100 4.9859215448e+00 6.1175412510e-05 1.6565785774e+00 -2.8692782628e+00 1.6565785774e+00 2.8692782628e+00 
73200 4.9859215503e+00 6.1184776975e-05 1.6565785774e+00 -2.8692782628e+00 1.6565785774e+00 2.8692782628e+00 
73300 4.9859215558e+00 6.1194175510e-05 1.6565785774e+00 -2.8692782628e+00 1.6565785774e+00 2.8692782628e+00 
73400 4.9859215612e+00 6.1203606773e-05 1.6565785774e+00 -2.8692782628e+00 1.6565785774e+00 2.8692782628e+00 
73500 4.9859215666e+00 6.1213069450e-05 1.6565785774e+00 -2.8692782628e+00 1.6565785774e+00 2.8692782628e+00 
73600 4.9859215719e+00 6.1222562249e-05 1.6565785774e+00 -2.8692782628e+00 1.6565785774e+00 2.8692782628e+00 
73700 4.9859215771e+00 6.1232083904e-05 1.6565785774e+00 -2.8692782628e+00 1.6565785774e+00 2.8692782628e+00 
73800 4.9859215823e+00 6.1241633172e-05 1.6565785774e+00 -2.8692782628e+00 1.6565785774e+00 2.8692782628e+00 
73900 4.9859215874e+00 6.1251208835e-05 1.6565785774e+00 -2.8692782628e+00 1.6565785774e+00 2.8692782628e+00 
74000 4.9859215925e+00 6.1260809696e-05 1.6565785774e+00 -2.8692782628e+00 1.6565785774e+00 2.8692782628e+00 
74100 4.9859215975e+00 6.1270434585e-05 1.6565785774e+00 -2.8692782628e+00 1.6565785774e+00 2.8692782628e+00 
74200 4.9859216024e+00 6.1280082349e-05 1.6565785774e+00 -2.8692782628e+00 1.6565785774e+00 2.8692782628e+00 
74300 4.9859216073e+00 6.1289751859e-05 1.6565785774e+00 -2.8692782628e+00 1.6565785774e+00 2.8692782628e+00 
74400 4.9859216121e+00 6.1299442010e-05 1.6565785774e+00 -2.8692782628e+00 1.6565785774e+00 2.8692782628e+00 
74500 4.9859216169e+00 6.1309151715e-05 1.6565785774e+00 -2.8692782628e+00 1.6565785774e+00 2.8692782628e+00 
74600 4.9859216216e+00 6.1318879909e-05 1.6565785774e+00 -2.8692782628e+00 1.6565785774e+00 2.8692782628e+00 
74700 4.9859216263e+00 6.1328625547e-05 1.6565785774e+00 -2.8692782628e+00 1.6565785774e+00 2.8692782628e+00 
74800 4.9859216309e+00 6.1338387604e-05 1.6565785774e+00 -2.8692782628e+00 1.6565785774e+00 2.8692782628e+00 
74900 4.9859216354e+00 6.1348165075e-05 1.6565785774e+00 -2.8692782628e+00 1.6565785774e+00 2.8692782628e+00 
75000 4.9859216399e+00 6.1357956974e-05 1.6565785774e+00 -2.8692782628e+00 1.6565785774e+00 2.8692782628e+00 
75100 4.9859216443e+00 6.1367762334e-05 1.6565785774e+00 -2.8692782628e+00 1.6565785774e+00 2.8692782628e+00 
75200 4.9859216487e+00 6.1377580205e-05 1.6565785774e+00 -2.8692782628e+00 1.6565785774e+00 2.8692782628e+00 
75300 4.9859216531e+00 6.1387409656e-05 1.6565785774e+00 -2.8692782628e+00 1.6565785774e+00 2.8692782628e+00 
75400 4.9859216574e+00 6.1397249776e-05 1.6565785774e+00 -2.8692782628e+00 1.6565785774e+00 2.8692782628e+00 
75500 4.9859216616e+00 6.1407099668e-05 1.6565785774e+00 -2.8692782628e+00 1.6565785774e+00 2.8692782628e+00 
75600 4.9859216658e+00 6.1416958453e-05 1.6565785774e+00 -2.8692782628e+00 1.6565785774e+00 2.8692782628e+00 
75700 4.9859216699e+00 6.1426825269e-05 1.6565785774e+00 -2.8692782628e+00 1.6565785774e+00 2.8692782628e+00 
75800 4.9859216740e+00 6.1436699271e-05 1.6565785774e+00 -2.8692782628e+00 1.6565785774e+00 2.8692782628e+00 
75900 4.9859216781e+00 6.1446579630e-05 1.6565785774e+00 -2.8692782628e+00 1.6565785774e+00 2.8692782628e+00 
76000 4.9859216821e+00 6.1456465531e-05 1.6565785774e+00 -2.8692782628e+00 1.6565785774e+00 2.8692782628e+00 
76100 4.9859216860e+00 6.1466356176e-05 1.6565785774e+00 -2.8692782628e+00 1.6565785774e+00 2.8692782628e+00 
76200 4.9859216899e+00 6.1476250782e-05 1.6565785774e+00 -2.8692782628e+00 1.6565785774e+00 2.8692782628e+00 
76300 4.9859216938e+00 6.1486148580e-05 1.6565785774e+00 -2.8692782628e+00 1.6565785774e+00 2.8692782628e+00 
76400 4.9859216976e+00 6.1496048817e-05 1.6565785774e+00 -2.8692782628e+00 1.6565785774e+00 2.8692782628e+00 
76500 4.9859217014e+00 6.1505950752e-05 1.6565785774e+00 -2.8692782628e+00 1.6565785774e+00 2.8692782628e+00 
76600 4.9859217051e+00 6.1515853660e-05 1.6565785774e+00 -2.8692782628e+00 1.6565785774e+00 2.8692782628e+00 
76700 4.9859217088e+00 6.1525756829e-05 1.6565785774e+00 -2.8692782628e+00 1.6565785774e+00 2.8692782628e+00 
76800 4.9859217125e+00 6.1535659560e-05 1.6565785774e+00 -2.8692782628e+00 1.6565785774e+00 2.8692782628e+00 
76900 4.9859217161e+00 6.1545561168e-05 1.6565785774e+00 -2.8692782628e+00 1.6565785774e+00 2.8692782628e+00 
77000 4.9859217196e+00 6.1555460978e-05 1.6565785774e+00 -2.8692782628e+00 1.6565785774e+00 2.8692782628e+00 
77100 4.9859217231e+00 6.1565358332e-05 1.6565785774e+00 -2.8692782628e+00 1.6565785774e+00 2.8692782628e+00 
77200 4.9859217266e+00 6.1575252583e-05 1.6565785774e+00 -2.8692782628e+00 1.6565785774e+00 2.8692782628e+00 
77300 4.9859217301e+00 6.1585143094e-05 1.6565785774e+00 -2.8692782628e+00 1.6565785774e+00 2.8692782628e+00 
77400 4.9859217335e+00 6.1595029241e-05 1.6565785774e+00 -2.8692782628e+00 1.6565785774e+00 2.8692782628e+00 
77500 4.9859217368e+00 6.1604910413e-05 1.6565785774e+00 -2.8692782628e+00 1.6565785774e+00 2.8692782628e+00 
77600 4.9859217401e+00 6.1614786008e-05 1.6565785774e+00 -2.8692782628e+00 1.6565785774e+00 2.8692782628e+00 
77700 4.9859217434e+00 6.1624655437e-05 1.6565785774e+00 -2.8692782628e+00 1.6565785774e+00 2.8692782628e+00 
77800 4.9859217467e+00 6.1634518122e-05 1.6565785774e+00 -2.8692782628e+00 1.6565785774e+00 2.8692782628e+00 
77900 4.9859217499e+00 6.1644373495e-05 1.6565785774e+00 -2.8692782628e+00 1.6565785774e+00 2.8692782628e+00 
78000 4.9859217530e+00 6.1654221000e-05 1.6565785774e+00 -2.8692782628e+00 1.6565785774e+00 2.8692782628e+00 
78100 4.9859217562e+00 6.1664060088e-05 1.6565785774e+00 -2.8692782628e+00 1.6565785774e+00 2.8692782628e+00 
78200 4.9859217593e+00 6.1673890225e-05 1.6565785774e+00 -2.8692782628e+00 1.6565785774e+00 2.8692782628e+00 
78300 4.9859217623e+00 6.1683710883e-05 1.6565785774e+00 -2.8692782628e+00 1.6565785774e+00 2.8692782628e+00 
78400 4.9859217654e+00 6.1693521545e-05 1.6565785774e+00 -2.8692782628e+00 1.6565785774e+00 2.8692782628e+00 
78500 4.9859217683e+00 6.1703321705e-05 1.6565785774e+00 -2.8692782628e+00 1.6565785774e+00 2.8692782628e+00 
78600 4.9859217713e+00 6.1713110864e-05 1.6565785774e+00 -2.8692782628e+00 1.6565785774e+00 2.8692782628e+00 
78700 4.9859217742e+00 6.1722888534e-05 1.6565785774e+00 -2.8692782628e+00 1.6565785774e+00 2.8692782628e+00 
78800 4.9859217771e+00 6.1732654237e-05 1.6565785774e+00 -2.8692782628e+00 1.6565785774e+00 2.8692782628e+00 
78900 4.9859217800e+00 6.1742407501e-05 1.6565785774e+00 -2.8692782628e+00 1.6565785774e+00 2.8692782628e+00 
79000 4.9859217828e+00 6.1752147865e-05 1.6565785774e+00 -2.8692782628e+00 1.6565785774e+00 2.8692782628e+00 
79100 4.9859217856e+00 6.1761874876e-05 1.6565785774e+00 -2.8692782628e+00 1.6565785774e+00 2.8692782628e+00 
79200 4.9859217883e+00 6.1771588090e-05 1.6565785774e+00 -2.8692782628e+00 1.6565785774e+00 2.8692782628e+00 
79300 4.9859217911e+00 6.1781287070e-05 1.6565785774e+00 -2.8692782628e+00 1.6565785774e+00 2.8692782628e+00 
79400 4.9859217937e+00 6.1790971388e-05 1.6565785774e+00 -2.8692782628e+00 1.6565785774e+00 2.8692782628e+00 
79500 4.9859217964e+00 6.1800640625e-05 1.6565785774e+00 -2.8692782628e+00 1.6565785774e+00 2.8692782628e+00 
79600 4.9859217990e+00 6.1810294369e-05 1.6565785774e+00 -2.8692782628e+00 1.6565785774e+00 2.8692782628e+00 
79700 4.9859218016e+00 6.1819932214e-05 1.6565785774e+00 -2.8692782628e+00 1.6565785774e+00 2.8692782628e+00 
79800 4.9859218042e+00 6.1829553765e-05 1.6565785774e+00 -2.8692782628e+00 1.6565785774e+00 2.8692782628e+00 
79900 4.9859218068e+00 6.1839158632e-05 1.6565785774e+00 -2.8692782628e+00 1.6565785774e+00 2.8692782628e+00 
80000 4.9859218093e+00 6.1848746435e-05 1.6565785774e+00 -2.8692782628e+00 1.6565785774e+00 2.8692782628e+00 
80100 4.9859218118e+00 6.1858316798e-05 1.6565785774e+00 -2.8692782628e+00 1.6565785774e+00 2.8692782628e+00 
80200 4.9859218142e+00 6.1867869354e-05 1.6565785774e+00 -2.8692782628e+00 1.6565785774e+00 2.8692782628e+00 
80300 4.9859218166e+00 6.1877403743e-05 1.6565785774e+00 -2.8692782628e+00 1.6565785774e+00 2.8692782628e+00 
80400 4.9859218190e+00 6.1886919611e-05 1.6565785774e+00 -2.8692782628e+00 1.6565785774e+00 2.8692782628e+00 
80500 4.9859218214e+00 6.1896416612e-05 1.6565785774e+00 -2.8692782628e+00 1.6565785774e+00 2.8692782628e+00 
80600 4.9859218237e+00 6.1905894408e-05 1.6565785774e+00 -2.8692782628e+00 1.6565785774e+00 2.8692782628e+00 
80700 4.9859218261e+00 6.1915352664e-05 1.6565785774e+00 -2.8692782628e+00 1.6565785774e+00 2.8692782628e+00 
80800 4.9859218284e+00 6.1924791052e-05 1.6565785774e+00 -2.8692782628e+00 1.6565785774e+00 2.8692782628e+00 
80900 4.9859218306e+00 6.1934209255e-05 1.6565785774e+00 -2.8692782628e+00 1.6565785774e+00 2.8692782628e+00 
81000 4.9859218329e+00 6.1943606959e-05 1.6565785774e+00 -2.8692782628e+00 1.6565785774e+00 2.8692782628e+00 
81100 4.9859218351e+00 6.1952983854e-05 1.6565785774e+00 -2.8692782628e+00 1.6565785774e+00 2.8692782628e+00 
81200 4.9859218373e+00 6.1962339640e-05 1.6565785774e+00 -2.8692782628e+00 1.6565785774e+00 2.8692782628e+00 
81300 4.9859218394e+00 6.1971674022e-05 1.6565785774e+00 -2.8692782628e+00 1.6565785774e+00 2.8692782628e+00 
81400 4.9859218416e+00 6.1980986710e-05 1.6565785774e+00 -2.8692782628e+00 1.6565785774e+00 2.8692782628e+00 
81500 4.9859218437e+00 6.1990277421e-05 1.6565785774e+00 -2.8692782628e+00 1.6565785774e+00 2.8692782628e+00 
81600 4.9859218458e+00 6.1999545876e-05 1.6565785774e+00 -2.8692782628e+00 1.6565785774e+00 2.8692782628e+00 
81700 4.9859218478e+00 6.2008791805e-05 1.6565785774e+00 -2.8692782628e+00 1.6565785774e+00 2.8692782628e+00 
81800 4.9859218499e+00 6.2018014940e-05 1.6565785774e+00 -2.8692782628e+00 1.6565785774e+00 2.8692782628e+00 
81900 4.9859218519e+00 6.2027215022e-05 1.6565785774e+00 -2.8692782628e+00 1.6565785774e+00 2.8692782628e+00 
82000 4.9859218539e+00 6.2036391794e-05 1.6565785774e+00 -2.8692782628e+00 1.6565785774e+00 2.8692782628e+00 
82100 4.9859218558e+00 6.2045545008e-05 1.6565785774e+00 -2.8692782628e+00 1.6565785774e+00 2.8692782628e+00 
82200 4.9859218578e+00 6.2054674418e-05 1.6565785774e+00 -2.8692782628e+00 1.6565785774e+00 2.8692782628e+00 
82300 4.9859218597e+00 6.2063779787e-05 1.6565785774e+00 -2.8692782628e+00 1.6565785774e+00 2.8692782628e+00 
82400 4.9859218616e+00 6.2072860879e-05 1.6565785774e+00 -2.8692782628e+00 1.6565785774e+00 2.8692782628e+00 
82500 4.9859218635e+00 6.2081917466e-05 1.6565785774e+00 -2.8692782628e+00 1.6565785774e+00 2.8692782628e+00 
82600 4.9859218654e+00 6.2090949324e-05 1.6565785774e+00 -2.8692782628e+00 1.6565785774e+00 2.8692782628e+00 
82700 4.9859218672e+00 6.2099956235e-05 1.6565785774e+00 -2.8692782628e+00 1.6565785774e+00 2.8692782628e+00 
82800 4.9859218690e+00 6.2108937986e-05 1.6565785774e+00 -2.8692782628e+00 1.6565785774e+00 2.8692782628e+00 
82900 4.9859218708e+00 6.2117894367e-05 1.6565785774e+00 -2.8692782628e+00 1.6565785774e+00 2.8692782628e+00 
83000 4.9859218726e+00 6.2126825175e-05 1.6565785774e+00 -2.8692782628e+00 1.6565785774e+00 2.8692782628e+00 
83100 4.9859218744e+00 6.2135730210e-05 1.6565785774e+00 -2.8692782628e+00 1.6565785774e+00 2.8692782628e+00 
83200 4.9859218761e+00 6.2144609279e-05 1.6565785774e+00 -2.8692782628e+00 1.6565785774e+00 2.8692782628e+00 
83300 4.9859218778e+00 6.2153462192e-05 1.6565785774e+00 -2.8692782628e+00 1.6565785774e+00 2.8692782628e+00 
83400 4.9859218795e+00 6.2162288764e-05 1.6565785774e+00 -2.8692782628e+00 1.6565785774e+00 2.8692782628e+00 
83500 4.9859218812e+00 6.2171088813e-05 1.6565785774e+00 -2.8692782628e+00 1.6565785774e+00 2.8692782628e+00 
83600 4.9859218828e+00 6.2179862164e-05 1.6565785774e+00 -2.8692782628e+00 1.6565785774e+00 2.8692782628e+00 
83700 4.9859218845e+00 6.2188608647e-05 1.6565785774e+00 -2.8692782628e+00 1.6565785774e+00 2.8692782628e+00 
83800 4.9859218861e+00 6.2197328094e-05 1.6565785774e+00 -2.8692782628e+00 1.6565785774e+00 2.8692782628e+00 
83900 4.9859218877e+00 6.2206020340e-05 1.6565785774e+00 -2.8692782628e+00 1.6565785774e+00 2.8692782628e+00 
84000 4.9859218893e+00 6.2214685231e-05 1.6565785774e+00 -2.8692782628e+00 1.6565785774e+00 2.8692782628e+00 
84100 4.9859218908e+00 6.2223322609e-05 1.6565785774e+00 -2.8692782628e+00 1.6565785774e+00 2.8692782628e+00 
84200 4.9859218924e+00 6.2231932326e-05 1.6565785774e+00 -2.8692782628e+00 1.6565785774e+00 2.8692782628e+00 
84300 4.9859218939e+00 6.2240514235e-05 1.6565785774e+00 -2.8692782628e+00 1.6565785774e+00 2.8692782628e+00 
84400 4.9859218954e+00 6.2249068197e-05 1.6565785774e+00 -2.8692782628e+00 1.6565785774e+00 2.8692782628e+00 
84500 4.9859218969e+00 6.2257594071e-05 1.6565785774e+00 -2.8692782628e+00 1.6565785774e+00 2.8692782628e+00 
84600 4.9859218984e+00 6.2266091726e-05 1.6565785774e+00 -2.8692782628e+00 1.6565785774e+00 2.8692782628e+00 
84700 4.9859218999e+00 6.2274561030e-05 1.6565785774e+00 -2.8692782628e+00 1.6565785774e+00 2.8692782628e+00 
84800 4.9859219013e+00 6.2283001859e-05 1.6565785774e+00 -2.8692782628e+00 1.6565785774e+00 2.8692782628e+00 
84900 4.9859219027e+00 6.2291414091e-05 1.6565785774e+00 -2.8692782628e+00 1.6565785774e+00 2.8692782628e+00 
85000 4.9859219042e+00 6.2299797608e-05 1.6565785774e+00 -2.8692782628e+00 1.6565785774e+00 2.8692782628e+00 
85100 4.9859219055e+00 6.2308152296e-05 1.6565785774e+00 -2.8692782628e+00 1.6565785774e+00 2.8692782628e+00 
85200 4.9859219069e+00 6.2316478044e-05 1.6565785774e+00 -2.8692782628e+00 1.6565785774e+00 2.8692782628e+00 
85300 4.9859219083e+00 6.2324774746e-05 1.6565785774e+00 -2.8692782628e+00 1.6565785774e+00 2.8692782628e+00 
85400 4.9859219096e+00 6.2333042298e-05 1.6565785774e+00 -2.8692782628e+00 1.6565785774e+00 2.8692782628e+00 
85500 4.9859219110e+00 6.2341280602e-05 1.6565785774e+00 -2.8692782628e+00 1.6565785774e+00 2.8692782628e+00 
85600 4.9859219123e+00 6.2349489561e-05 1.6565785774e+00 -2.8692782628e+00 1.6565785774e+00 2.8692782628e+00 
85700 4.9859219136e+00 6.2357669084e-05 1.6565785774e+00 -2.8692782628e+00 1.6565785774e+00 2.8692782628e+00 
85800 4.9859219149e+00 6.2365819080e-05 1.6565785774e+00 -2.8692782628e+00 1.6565785774e+00 2.8692782628e+00 
85900 4.9859219162e+00 6.2373939466e-05 1.6565785774e+00 -2.8692782628e+00 1.6565785774e+00 2.8692782628e+00 
86000 4.9859219174e+00 6.2382030159e-05 1.6565785774e+00 -2.8692782628e+00 1.6565785774e+00 2.8692782628e+00 
86100 4.9859219187e+00 6.2390091082e-05 1.6565785774e+00 -2.8692782628e+00 1.6565785774e+00 2.8692782628e+00 
86200 4.9859219199e+00 6.2398122157e-05 1.6565785774e+00 -2.8692782628e+00 1.6565785774e+00 2.8692782628e+00 
86300 4.9859219211e+00 6.2406123314e-05 1.6565785774e+00 -2.8692782628e+00 1.6565785774e+00 2.8692782628e+00 
86400 4.9859219223e+00 6.2414094485e-05 1.6565785774e+00 -2.8692782628e+00 1.6565785774e+00 2.8692782628e+00 
86500 4.9859219235e+00 6.2422035603e-05 1.6565785774e+00 -2.8692782628e+00 1.6565785774e+00 2.8692782628e+00 
86600 4.9859219247e+00 6.2429946607e-05 1.6565785774e+00 -2.8692782628e+00 1.6565785774e+00 2.8692782628e+00 
86700 4.9859219258e+00 6.2437827436e-05 1.6565785774e+00 -2.8692782628e+00 1.6565785774e+00 2.8692782628e+00 
86800 4.9859219270e+00 6.2445678037e-05 1.6565785774e+00 -2.8692782628e+00 1.6565785774e+00 2.8692782628e+00 
86900 4.9859219281e+00 6.2453498355e-05 1.6565785774e+00 -2.8692782628e+00 1.6565785774e+00 2.8692782628e+00 
87000 4.9859219292e+00 6.2461288341e-05 1.6565785774e+00 -2.8692782628e+00 1.6565785774e+00 2.8692782628e+00 
87100 4.9859219303e+00 6.2469047948e-05 1.6565785774e+00 -2.8692782628e+00 1.6565785774e+00 2.8692782628e+00 
87200 4.9859219314e+00 6.2476777130e-05 1.6565785774e+00 -2.8692782628e+00 1.6565785774e+00 2.8692782628e+00 
87300 4.9859219325e+00 6.2484475850e-05 1.6565785774e+00 -2.8692782628e+00 1.6565785774e+00 2.8692782628e+00 
87400 4.9859219336e+00 6.2492144067e-05 1.6565785774e+00 -2.8692782628e+00 1.6565785774e+00 2.8692782628e+00 
87500 4.9859219347e+00 6.2499781748e-05 1.6565785774e+00 -2.8692782628e+00 1.6565785774e+00 2.8692782628e+00 
87600 4.9859219357e+00 6.2507388858e-05 1.6565785774e+00 -2.8692782628e+00 1.6565785774e+00 2.8692782628e+00 
87700 4.9859219367e+00 6.2514965369e-05 1.6565785774e+00 -2.8692782628e+00 1.6565785774e+00 2.8692782628e+00 
87800 4.9859219378e+00 6.2522511253e-05 1.6565785774e+00 -2.8692782628e+00 1.6565785774e+00 2.8692782628e+00 
87900 4.9859219388e+00 6.2530026487e-05 1.6565785774e+00 -2.8692782628e+00 1.6565785774e+00 2.8692782628e+00 
88000 4.9859219398e+00 6.2537511049e-05 1.6565785774e+00 -2.8692782628e+00 1.6565785774e+00 2.8692782628e+00 
88100 4.9859219408e+00 6.2544964918e-05 1.6565785774e+00 -2.8692782628e+00 1.6565785774e+00 2.8692782628e+00 
88200 4.9859219417e+00 6.2552388081e-05 1.6565785774e+00 -2.8692782628e+00 1.6565785774e+00 2.8692782628e+00 
88300 4.9859219427e+00 6.2559780522e-05 1.6565785774e+00 -2.8692782628e+00 1.6565785774e+00 2.8692782628e+00 
88400 4.9859219437e+00 6.2567142231e-05 1.6565785774e+00 -2.8692782628e+00 1.6565785774e+00 2.8692782628e+00 
88500 4.9859219446e+00 6.2574473197e-05 1.6565785774e+00 -2.8692782628e+00 1.6565785774e+00 2.8692782628e+00 
88600 4.9859219455e+00 6.2581773416e-05 1.6565785774e+00 -2.8692782628e+00 1.6565785774e+00 2.8692782628e+00 
88700 4.9859219465e+00 6.2589042883e-05 1.6565785774e+00 -2.8692782628e+00 1.6565785774e+00 2.8692782628e+00 
88800 4.9859219474e+00 6.2596281596e-05 1.6565785774e+00 -2.8692782628e+00 1.6565785774e+00 2.8692782628e+00 
88900 4.9859219483e+00 6.2603489557e-05 1.6565785774e+00 -2.8692782628e+00 1.6565785774e+00 2.8692782628e+00 
89000 4.9859219492e+00 6.2610666769e-05 1.6565785774e+00 -2.8692782628e+00 1.6565785774e+00 2.8692782628e+00 
89100 4.9859219501e+00 6.2617813235e-05 1.6565785774e+00 -2.8692782628e+00 1.6565785774e+00 2.8692782628e+00 
89200 4.9859219509e+00 6.2624928965e-05 1.6565785774e+00 -2.8692782628e+00 1.6565785774e+00 2.8692782628e+00 
89300 4.9859219518e+00 6.2632013968e-05 1.6565785774e+00 -2.8692782628e+00 1.6565785774e+00 2.8692782628e+00 
89400 4.9859219527e+00 6.2639068257e-05 1.6565785774e+00 -2.8692782628e+00 1.6565785774e+00 2.8692782628e+00 
89500 4.9859219535e+00 6.2646091845e-05 1.6565785774e+00 -2.8692782628e+00 1.6565785774e+00 2.8692782628e+00 
89600 4.9859219543e+00 6.2653084748e-05 1.6565785774e+00 -2.8692782628e+00 1.6565785774e+00 2.8692782628e+00 
89700 4.9859219552e+00 6.2660046985e-05 1.6565785774e+00 -2.8692782628e+00 1.6565785774e+00 2.8692782628e+00 
89800 4.9859219560e+00 6.2666978577e-05 1.6565785774e+00 -2.8692782628e+00 1.6565785774e+00 2.8692782628e+00 
89900 4.9859219568e+00 6.2673879545e-05 1.6565785774e+00 -2.8692782628e+00 1.6565785774e+00 2.8692782628e+00 
90000 4.9859219576e+00 6.2680749915e-05 1.6565785774e+00 -2.8692782628e+00 1.6565785774e+00 2.8692782628e+00 
90100 4.9859219584e+00 6.2687589711e-05 1.6565785774e+00 -2.8692782628e+00 1.6565785774e+00 2.8692782628e+00 
90200 4.9859219591e+00 6.2694398962e-05 1.6565785774e+00 -2.8692782628e+00 1.6565785774e+00 2.8692782628e+00 
90300 4.9859219599e+00 6.2701177700e-05 1.6565785774e+00 -2.8692782628e+00 1.6565785774e+00 2.8692782628e+00 
90400 4.9859219607e+00 6.2707925955e-05 1.6565785774e+00 -2.8692782628e+00 1.6565785774e+00 2.8692782628e+00 
90500 4.9859219614e+00 6.2714643762e-05 1.6565785774e+00 -2.8692782628e+00 1.6565785774e+00 2.8692782628e+00 
90600 4.9859219622e+00 6.2721331155e-05 1.6565785774e+00 -2.8692782628e+00 1.6565785774e+00 2.8692782628e+00 
90700 4.9859219629e+00 6.2727988173e-05 1.6565785774e+00 -2.8692782628e+00 1.6565785774e+00 2.8692782628e+00 
90800 4.9859219636e+00 6.2734614854e-05 1.6565785774e+00 -2.8692782628e+00 1.6565785774e+00 2.8692782628e+00 
90900 4.9859219643e+00 6.2741211239e-05 1.6565785774e+00 -2.8692782628e+00 1.6565785774e+00 2.8692782628e+00 
91000 4.9859219651e+00 6.2747777371e-05 1.6565785774e+00 -2.8692782628e+00 1.6565785774e+00 2.8692782628e+00 
91100 4.9859219658e+00 6.2754313293e-05 1.6565785774e+00 -2.8692782628e+00 1.6565785774e+00 2.8692782628e+00 
91200 4.9859219665e+00 6.2760819053e-05 1.6565785774e+00 -2.8692782628e+00 1.6565785774e+00 2.8692782628e+00 
91300 4.9859219671e+00 6.2767294695e-05 1.6565785774e+00 -2.8692782628e+00 1.6565785774e+00 2.8692782628e+00 
91400 4.9859219678e+00 6.2773740269e-05 1.6565785774e+00 -2.8692782628e+00 1.6565785774e+00 2.8692782628e+00 
91500 4.9859219685e+00 6.2780155826e-05 1.6565785774e+00 -2.8692782628e+00 1.6565785774e+00 2.8692782628e+00 
91600 4.9859219692e+00 6.2786541418e-05 1.6565785774e+00 -2.8692782628e+00 1.6565785774e+00 2.8692782628e+00 
91700 4.9859219698e+00 6.2792897097e-05 1.6565785774e+00 -2.8692782628e+00 1.6565785774e+00 2.8692782628e+00 
91800 4.9859219705e+00 6.2799222919e-05 1.6565785774e+00 -2.8692782628e+00 1.6565785774e+00 2.8692782628e+00 
91900 4.9859219711e+00 6.2805518939e-05 1.6565785774e+00 -2.8692782628e+00 1.6565785774e+00 2.8692782628e+00 
92000 4.9859219717e+00 6.2811785215e-05 1.6565785774e+00 -2.8692782628e+00 1.6565785774e+00 2.8692782628e+00 
92100 4.9859219724e+00 6.2818021806e-05 1.6565785774e+00 -2.8692782628e+00 1.6565785774e+00 2.8692782628e+00 
92200 4.9859219730e+00 6.2824228773e-05 1.6565785774e+00 -2.8692782628e+00 1.6565785774e+00 2.8692782628e+00 
92300 4.9859219736e+00 6.2830406176e-05 1.6565785774e+00 -2.8692782628e+00 1.6565785774e+00 2.8692782628e+00 
92400 4.9859219742e+00 6.2836554077e-05 1.6565785774e+00 -2.8692782628e+00 1.6565785774e+00 2.8692782628e+00 
92500 4.9859219748e+00 6.2842672543e-05 1.6565785774e+00 -2.8692782628e+00 1.6565785774e+00 2.8692782628e+00 
92600 4.9859219754e+00 6.2848761636e-05 1.6565785774e+00 -2.8692782628e+00 1.6565785774e+00 2.8692782628e+00 
92700 4.9859219760e+00 6.2854821424e-05 1.6565785774e+00 -2.8692782628e+00 1.6565785774e+00 2.8692782628e+00 
92800 4.9859219766e+00 6.2860851974e-05 1.6565785774e+00 -2.8692782628e+00 1.6565785774e+00 2.8692782628e+00 
92900 4.9859219771e+00 6.2866853356e-05 1.6565785774e+00 -2.8692782628e+00 1.6565785774e+00 2.8692782628e+00 
93000 4.9859219777e+00 6.2872825637e-05 1.6565785774e+00 -2.8692782628e+00 1.6565785774e+00 2.8692782628e+00 
93100 4.9859219783e+00 6.2878768891e-05 1.6565785774e+00 -2.8692782628e+00 1.6565785774e+00 2.8692782628e+00 
93200 4.9859219788e+00 6.2884683188e-05 1.6565785774e+00 -2.8692782628e+00 1.6565785774e+00 2.8692782628e+00 
93300 4.9859219794e+00 6.2890568601e-05 1.6565785774e+00 -2.8692782628e+00 1.6565785774e+00 2.8692782628e+00 
93400 4.9859219799e+00 6.2896425205e-05 1.6565785774e+00 -2.8692782628e+00 1.6565785774e+00 2.8692782628e+00 
93500 4.9859219804e+00 6.2902253074e-05 1.6565785774e+00 -2.8692782628e+00 1.6565785774e+00 2.8692782628e+00 
93600 4.9859219810e+00 6.2908052284e-05 1.6565785774e+00 -2.8692782628e+00 1.6565785774e+00 2.8692782628e+00 
93700 4.9859219815e+00 6.2913822913e-05 1.6565785774e+00 -2.8692782628e+00 1.6565785774e+00 2.8692782628e+00 
93800 4.9859219820e+00 6.2919565038e-05 1.6565785774e+00 -2.8692782628e+00 1.6565785774e+00 2.8692782628e+00 
93900 4.9859219825e+00 6.2925278738e-05 1.6565785774e+00 -2.8692782628e+00 1.6565785774e+00 2.8692782628e+00 
94000 4.9859219830e+00 6.2930964091e-05 1.6565785774e+00 -2.8692782628e+00 1.6565785774e+00 2.8692782628e+00 
94100 4.9859219835e+00 6.2936621180e-05 1.6565785774e+00 -2.8692782628e+00 1.6565785774e+00 2.8692782628e+00 
94200 4.9859219840e+00 6.2942250084e-05 1.6565785774e+00 -2.8692782628e+00 1.6565785774e+00 2.8692782628e+00 
94300 4.9859219845e+00 6.2947850887e-05 1.6565785774e+00 -2.8692782628e+00 1.6565785774e+00 2.8692782628e+00 
94400 4.9859219850e+00 6.2953423670e-05 1.6565785774e+00 -2.8692782628e+00 1.6565785774e+00 2.8692782628e+00 
94500 4.9859219855e+00 6.2958968517e-05 1.6565785774e+00 -2.8692782628e+00 1.6565785774e+00 2.8692782628e+00 
94600 4.9859219859e+00 6.2964485513e-05 1.6565785774e+00 -2.8692782628e+00 1.6565785774e+00 2.8692782628e+00 
94700 4.9859219864e+00 6.2969974743e-05 1.6565785774e+00 -2.8692782628e+00 1.6565785774e+00 2.8692782628e+00 
94800 4.9859219869e+00 6.2975436293e-05 1.6565785774e+00 -2.8692782628e+00 1.6565785774e+00 2.8692782628e+00 
94900 4.9859219873e+00 6.2980870248e-05 1.6565785774e+00 -2.8692782628e+00 1.6565785774e+00 2.8692782628e+00 
95000 4.9859219878e+00 6.2986276696e-05 1.6565785774e+00 -2.8692782628e+00 1.6565785774e+00 2.8692782628e+00 
95100 4.9859219882e+00 6.2991655725e-05 1.6565785774e+00 -2.8692782628e+00 1.6565785774e+00 2.8692782628e+00 
95200 4.9859219887e+00 6.2997007422e-05 1.6565785774e+00 -2.8692782628e+00 1.6565785774e+00 2.8692782628e+00 
95300 4.9859219891e+00 6.3002331879e-05 1.6565785774e+00 -2.8692782628e+00 1.6565785774e+00 2.8692782628e+00 
95400 4.9859219895e+00 6.3007629182e-05 1.6565785774e+00 -2.8692782628e+00 1.6565785774e+00 2.8692782628e+00 
95500 4.9859219900e+00 6.3012899423e-05 1.6565785774e+00 -2.8692782628e+00 1.6565785774e+00 2.8692782628e+00 
95600 4.9859219904e+00 6.3018142692e-05 1.6565785774e+00 -2.8692782628e+00 1.6565785774e+00 2.8692782628e+00 
95700 4.9859219908e+00 6.3023359081e-05 1.6565785774e+00 -2.8692782628e+00 1.6565785774e+00 2.8692782628e+00 
95800 4.9859219912e+00 6.3028548681e-05 1.6565785774e+00 -2.8692782628e+00 1.6565785774e+00 2.8692782628e+00 
95900 4.9859219916e+00 6.3033711584e-05 1.6565785774e+00 -2.8692782628e+00 1.6565785774e+00 2.8692782628e+00 
96000 4.9859219920e+00 6.3038847882e-05 1.6565785774e+00 -2.8692782628e+00 1.6565785774e+00 2.8692782628e+00 
96100 4.9859219924e+00 6.3043957670e-05 1.6565785774e+00 -2.8692782628e+00 1.6565785774e+00 2.8692782628e+00 
96200 4.9859219928e+00 6.3049041040e-05 1.6565785774e+00 -2.8692782628e+00 1.6565785774e+00 2.8692782628e+00 
96300 4.9859219932e+00 6.3054098086e-05 1.6565785774e+00 -2.8692782628e+00 1.6565785774e+00 2.8692782628e+00 
96400 4.9859219936e+00 6.3059128903e-05 1.6565785774e+00 -2.8692782628e+00 1.6565785774e+00 2.8692782628e+00 
96500 4.9859219940e+00 6.3064133586e-05 1.6565785774e+00 -2.8692782628e+00 1.6565785774e+00 2.8692782628e+00 
96600 4.9859219943e+00 6.3069112229e-05 1.6565785774e+00 -2.8692782628e+00 1.6565785774e+00 2.8692782628e+00 
96700 4.9859219947e+00 6.3074064928e-05 1.6565785774e+00 -2.8692782628e+00 1.6565785774e+00 2.8692782628e+00 
96800 4.9859219951e+00 6.3078991779e-05 1.6565785774e+00 -2.8692782628e+00 1.6565785774e+00 2.8692782628e+00 
96900 4.9859219954e+00 6.3083892878e-05 1.6565785774e+00 -2.8692782628e+00 1.6565785774e+00 2.8692782628e+00 
97000 4.9859219958e+00 6.3088768321e-05 1.6565785774e+00 -2.8692782628e+00 1.6565785774e+00 2.8692782628e+00 
97100 4.9859219962e+00 6.3093618205e-05 1.6565785774e+00 -2.8692782628e+00 1.6565785774e+00 2.8692782628e+00 
97200 4.9859219965e+00 6.3098442627e-05 1.6565785774e+00 -2.8692782628e+00 1.6565785774e+00 2.8692782628e+00 
97300 4.9859219969e+00 6.3103241686e-05 1.6565785774e+00 -2.8692782628e+00 1.6565785774e+00 2.8692782628e+00 
97400 4.9859219972e+00 6.3108015477e-05 1.6565785774e+00 -2.8692782628e+00 1.6565785774e+00 2.8692782628e+00 
97500 4.9859219975e+00 6.3112764098e-05 1.6565785774e+00 -2.8692782628e+00 1.6565785774e+00 2.8692782628e+00 
97600 4.9859219979e+00 6.3117487648e-05 1.6565785774e+00 -2.8692782628e+00 1.6565785774e+00 2.8692782628e+00 
97700 4.9859219982e+00 6.3122186226e-05 1.6565785774e+00 -2.8692782628e+00 1.6565785774e+00 2.8692782628e+00 
97800 4.9859219985e+00 6.3126859929e-05 1.6565785774e+00 -2.8692782628e+00 1.6565785774e+00 2.8692782628e+00 
97900 4.9859219989e+00 6.3131508855e-05 1.6565785774e+00 -2.8692782628e+00 1.6565785774e+00 2.8692782628e+00 
98000 4.9859219992e+00 6.3136133106e-05 1.6565785774e+00 -2.8692782628e+00 1.6565785774e+00 2.8692782628e+00 
98100 4.9859219995e+00 6.3140732777e-05 1.6565785774e+00 -2.8692782628e+00 1.6565785774e+00 2.8692782628e+00 
98200 4.9859219998e+00 6.3145307969e-05 1.6565785774e+00 -2.8692782628e+00 1.6565785774e+00 2.8692782628e+00 
98300 4.9859220001e+00 6.3149858781e-05 1.6565785774e+00 -2.8692782628e+00 1.6565785774e+00 2.8692782628e+00 
98400 4.9859220004e+00 6.3154385313e-05 1.6565785774e+00 -2.8692782628e+00 1.6565785774e+00 2.8692782628e+00 
98500 4.9859220007e+00 6.3158887663e-05 1.6565785774e+00 -2.8692782628e+00 1.6565785774e+00 2.8692782628e+00 
98600 4.9859220010e+00 6.3163365933e-05 1.6565785774e+00 -2.8692782628e+00 1.6565785774e+00 2.8692782628e+00 
98700 4.9859220013e+00 6.3167820220e-05 1.6565785774e+00 -2.8692782628e+00 1.6565785774e+00 2.8692782628e+00 
98800 4.9859220016e+00 6.3172250625e-05 1.6565785774e+00 -2.8692782628e+00 1.6565785774e+00 2.8692782628e+00 
98900 4.9859220019e+00 6.3176657248e-05 1.6565785774e+00 -2.8692782628e+00 1.6565785774e+00 2.8692782628e+00 
99000 4.9859220022e+00 6.3181040189e-05 1.6565785774e+00 -2.8692782628e+00 1.6565785774e+00 2.8692782628e+00 
99100 4.9859220025e+00 6.3185399547e-05 1.6565785774e+00 -2.8692782628e+00 1.6565785774e+00 2.8692782628e+00 
99200 4.9859220028e+00 6.3189735423e-05 1.6565785774e+00 -2.8692782628e+00 1.6565785774e+00 2.8692782628e+00 
99300 4.9859220030e+00 6.3194047917e-05 1.6565785774e+00 -2.8692782628e+00 1.6565785774e+00 2.8692782628e+00 
99400 4.9859220033e+00 6.3198337127e-05 1.6565785774e+00 -2.8692782628e+00 1.6565785774e+00 2.8692782628e+00 
99500 4.9859220036e+00 6.3202603155e-05 1.6565785774e+00 -2.8692782628e+00 1.6565785774e+00 2.8692782628e+00 
99600 4.9859220039e+00 6.3206846102e-05 1.6565785774e+00 -2.8692782628e+00 1.6565785774e+00 2.8692782628e+00 
99700 4.9859220041e+00 6.3211066066e-05 1.6565785774e+00 -2.8692782628e+00 1.6565785774e+00 2.8692782628e+00 
99800 4.9859220044e+00 6.3215263147e-05 1.6565785774e+00 -2.8692782628e+00 1.6565785774e+00 2.8692782628e+00 
99900 4.9859220046e+00 6.3219437446e-05 1.6565785774e+00 -2.8692782628e+00 1.6565785774e+00 2.8692782628e+00 
100000 4.9859220049e+00 6.3223589062e-05 1.6565785774e+00 -2.8692782628e+00 1.6565785774e+00 2.8692782628e+00 
100100 4.9859220052e+00 6.3227718096e-05 1.6565785774e+00 -2.8692782628e+00 1.6565785774e+00 2.8692782628e+00 
100200 4.9859220054e+00 6.3231824649e-05 1.6565785774e+00 -2.8692782628e+00 1.6565785774e+00 2.8692782628e+00 
100300 4.9859220057e+00 6.3235908817e-05 1.6565785774e+00 -2.8692782628e+00 1.6565785774e+00 2.8692782628e+00 
100400 4.9859220059e+00 6.3239970703e-05 1.6565785774e+00 -2.8692782628e+00 1.6565785774e+00 2.8692782628e+00 
100500 4.9859220061e+00 6.3244010405e-05 1.6565785774e+00 -2.8692782628e+00 1.6565785774e+00 2.8692782628e+00 
100600 4.9859220064e+00 6.3248028023e-05 1.6565785774e+00 -2.8692782628e+00 1.6565785774e+00 2.8692782628e+00 
100700 4.9859220066e+00 6.3252023658e-05 1.6565785774e+00 -2.8692782628e+00 1.6565785774e+00 2.8692782628e+00 
100800 4.9859220069e+00 6.3255997406e-05 1.6565785774e+00 -2.8692782628e+00 1.6565785774e+00 2.8692782628e+00 
100900 4.9859220071e+00 6.3259949370e-05 1.6565785774e+00 -2.8692782628e+00 1.6565785774e+00 2.8692782628e+00 
101000 4.9859220073e+00 6.3263879647e-05 1.6565785774e+00 -2.8692782628e+00 1.6565785774e+00 2.8692782628e+00 
101100 4.9859220075e+00 6.3267788336e-05 1.6565785774e+00 -2.8692782628e+00 1.6565785774e+00 2.8692782628e+00 
101200 4.9859220078e+00 6.3271675537e-05 1.6565785774e+00 -2.8692782628e+00 1.6565785774e+00 2.8692782628e+00 
101300 4.9859220080e+00 6.3275541348e-05 1.6565785774e+00 -2.8692782628e+00 1.6565785774e+00 2.8692782628e+00 
101400 4.9859220082e+00 6.3279385868e-05 1.6565785774e+00 -2.8692782628e+00 1.6565785774e+00 2.8692782628e+00 
101500 4.9859220084e+00 6.3283209196e-05 1.6565785774e+00 -2.8692782628e+00 1.6565785774e+00 2.8692782628e+00 
101600 4.9859220086e+00 6.3287011429e-05 1.6565785774e+00 -2.8692782628e+00 1.6565785774e+00 2.8692782628e+00 
101700 4.9859220089e+00 6.3290792667e-05 1.6565785774e+00 -2.8692782628e+00 1.6565785774e+00 2.8692782628e+00 
101800 4.9859220091e+00 6.3294553006e-05 1.6565785774e+00 -2.8692782628e+00 1.6565785774e+00 2.8692782628e+00 
101900 4.9859220093e+00 6.3298292546e-05 1.6565785774e+00 -2.8692782628e+00 1.6565785774e+00 2.8692782628e+00 
102000 4.9859220095e+00 6.3302011383e-05 1.6565785774e+00 -2.8692782628e+00 1.6565785774e+00 2.8692782628e+00 
102100 4.9859220097e+00 6.3305709615e-05 1.6565785774e+00 -2.8692782628e+00 1.6565785774e+00 2.8692782628e+00 
102200 4.9859220099e+00 6.3309387341e-05 1.6565785774e+00 -2.8692782628e+00 1.6565785774e+00 2.8692782628e+00 
102300 4.9859220101e+00 6.3313044656e-05 1.6565785774e+00 -2.8692782628e+00 1.6565785774e+00 2.8692782628e+00 
102400 4.9859220103e+00 6.3316681658e-05 1.6565785774e+00 -2.8692782628e+00 1.6565785774e+00 2.8692782628e+00 
102500 4.9859220105e+00 6.3320298443e-05 1.6565785774e+00 -2.8692782628e+00 1.6565785774e+00 2.8692782628e+00 
102600 4.9859220107e+00 6.3323895110e-05 1.6565785774e+00 -2.8692782628e+00 1.6565785774e+00 2.8692782628e+00 
102700 4.9859220108e+00 6.3327471752e-05 1.6565785774e+00 -2.8692782628e+00 1.6565785774e+00 2.8692782628e+00 
102800 4.9859220110e+00 6.3331028466e-05 1.6565785774e+00 -2.8692782628e+00 1.6565785774e+00 2.8692782628e+00 
102900 4.9859220112e+00 6.3334565350e-05 1.6565785774e+00 -2.8692782628e+00 1.6565785774e+00 2.8692782628e+00 
103000 4.9859220114e+00 6.3338082499e-05 1.6565785774e+00 -2.8692782628e+00 1.6565785774e+00 2.8692782628e+00 
103100 4.9859220116e+00 6.3341580006e-05 1.6565785774e+00 -2.8692782628e+00 1.6565785774e+00 2.8692782628e+00 
103200 4.9859220118e+00 6.3345057969e-05 1.6565785774e+00 -2.8692782628e+00 1.6565785774e+00 2.8692782628e+00 
103300 4.9859220119e+00 6.3348516483e-05 1.6565785774e+00 -2.8692782628e+00 1.6565785774e+00 2.8692782628e+00 
103400 4.9859220121e+00 6.3351955642e-05 1.6565785774e+00 -2.8692782628e+00 1.6565785774e+00 2.8692782628e+00 
103500 4.9859220123e+00 6.3355375540e-05 1.6565785774e+00 -2.8692782628e+00 1.6565785774e+00 2.8692782628e+00 
103600 4.9859220125e+00 6.3358776272e-05 1.6565785774e+00 -2.8692782628e+00 1.6565785774e+00 2.8692782628e+00 
103700 4.9859220126e+00 6.3362157933e-05 1.6565785774e+00 -2.8692782628e+00 1.6565785774e+00 2.8692782628e+00 
103800 4.9859220128e+00 6.3365520615e-05 1.6565785774e+00 -2.8692782628e+00 1.6565785774e+00 2.8692782628e+00 
103900 4.9859220130e+00 6.3368864413e-05 1.6565785774e+00 -2.8692782628e+00 1.6565785774e+00 2.8692782628e+00 
104000 4.9859220131e+00 6.3372189419e-05 1.6565785774e+00 -2.8692782628e+00 1.6565785774e+00 2.8692782628e+00 
104100 4.9859220133e+00 6.3375495728e-05 1.6565785774e+00 -2.8692782628e+00 1.6565785774e+00 2.8692782628e+00 
104200 4.9859220134e+00 6.3378783431e-05 1.6565785774e+00 -2.8692782628e+00 1.6565785774e+00 2.8692782628e+00 
104300 4.9859220136e+00 6.3382052621e-05 1.6565785774e+00 -2.8692782628e+00 1.6565785774e+00 2.8692782628e+00 
104400 4.9859220138e+00 6.3385303391e-05 1.6565785774e+00 -2.8692782628e+00 1.6565785774e+00 2.8692782628e+00 
104500 4.9859220139e+00 6.3388535832e-05 1.6565785774e+00 -2.8692782628e+00 1.6565785774e+00 2.8692782628e+00 
104600 4.9859220141e+00 6.3391750037e-05 1.6565785774e+00 -2.8692782628e+00 1.6565785774e+00 2.8692782628e+00 
104700 4.9859220142e+00 6.3394946096e-05 1.6565785774e+00 -2.8692782628e+00 1.6565785774e+00 2.8692782628e+00 
104800 4.9859220144e+00 6.3398124102e-05 1.6565785774e+00 -2.8692782628e+00 1.6565785774e+00 2.8692782628e+00 
104900 4.9859220145e+00 6.3401284143e-05 1.6565785774e+00 -2.8692782628e+00 1.6565785774e+00 2.8692782628e+00 
105000 4.9859220147e+00 6.3404426313e-05 1.6565785774e+00 -2.8692782628e+00 1.6565785774e+00 2.8692782628e+00 
105100 4.9859220148e+00 6.3407550700e-05 1.6565785774e+00 -2.8692782628e+00 1.6565785774e+00 2.8692782628e+00 
105200 4.9859220149e+00 6.3410657395e-05 1.6565785774e+00 -2.8692782628e+00 1.6565785774e+00 2.8692782628e+00 
105300 4.9859220151e+00 6.3413746487e-05 1.6565785774e+00 -2.8692782628e+00 1.6565785774e+00 2.8692782628e+00 
105400 4.9859220152e+00 6.3416818066e-05 1.6565785774e+00 -2.8692782628e+00 1.6565785774e+00 2.8692782628e+00 
105500 4.9859220154e+00 6.3419872222e-05 1.6565785774e+00 -2.8692782628e+00 1.6565785774e+00 2.8692782628e+00 
105600 4.9859220155e+00 6.3422909042e-05 1.6565785774e+00 -2.8692782628e+00 1.6565785774e+00 2.8692782628e+00 
105700 4.9859220156e+00 6.3425928617e-05 1.6565785774e+00 -2.8692782628e+00 1.6565785774e+00 2.8692782628e+00 
105800 4.9859220158e+00 6.3428931032e-05 1.6565785774e+00 -2.8692782628e+00 1.6565785774e+00 2.8692782628e+00 
105900 4.9859220159e+00 6.3431916378e-05 1.6565785774e+00 -2.8692782628e+00 1.6565785774e+00 2.8692782628e+00 
106000 4.9859220160e+00 6.3434884741e-05 1.6565785774e+00 -2.8692782628e+00 1.6565785774e+00 2.8692782628e+00 
106100 4.9859220162e+00 6.3437836209e-05 1.6565785774e+00 -2.8692782628e+00 1.6565785774e+00 2.8692782628e+00 
106200 4.9859220163e+00 6.3440770869e-05 1.6565785774e+00 -2.8692782628e+00 1.6565785774e+00 2.8692782628e+00 
106300 4.9859220164e+00 6.3443688807e-05 1.6565785774e+00 -2.8692782628e+00 1.6565785774e+00 2.8692782628e+00 
106400 4.9859220165e+00 6.3446590111e-05 1.6565785774e+00 -2.8692782628e+00 1.6565785774e+00 2.8692782628e+00 
106500 4.9859220167e+00 6.3449474866e-05 1.6565785774e+00 -2.8692782628e+00 1.6565785774e+00 2.8692782628e+00 
106600 4.9859220168e+00 6.3452343158e-05 1.6565785774e+00 -2.8692782628e+00 1.6565785774e+00 2.8692782628e+00 
106700 4.9859220169e+00 6.3455195072e-05 1.6565785774e+00 -2.8692782628e+00 1.6565785774e+00 2.8692782628e+00 
106800 4.9859220170e+00 6.3458030695e-05 1.6565785774e+00 -2.8692782628e+00 1.6565785774e+00 2.8692782628e+00 
106900 4.9859220172e+00 6.3460850111e-05 1.6565785774e+00 -2.8692782628e+00 1.6565785774e+00 2.8692782628e+00 
107000 4.9859220173e+00 6.3463653403e-05 1.6565785774e+00 -2.8692782628e+00 1.6565785774e+00 2.8692782628e+00 
107100 4.9859220174e+00 6.3466440657e-05 1.6565785774e+00 -2.8692782628e+00 1.6565785774e+00 2.8692782628e+00 
107200 4.9859220175e+00 6.3469211956e-05 1.6565785774e+00 -2.8692782628e+00 1.6565785774e+00 2.8692782628e+00 
107300 4.9859220176e+00 6.3471967384e-05 1.6565785774e+00 -2.8692782628e+00 1.6565785774e+00 2.8692782628e+00 
107400 4.9859220177e+00 6.3474707025e-05 1.6565785774e+00 -2.8692782628e+00 1.6565785774e+00 2.8692782628e+00 
107500 4.9859220178e+00 6.3477430961e-05 1.6565785774e+00 -2.8692782628e+00 1.6565785774e+00 2.8692782628e+00 
107600 4.9859220179e+00 6.3480139275e-05 1.6565785774e+00 -2.8692782628e+00 1.6565785774e+00 2.8692782628e+00 
107700 4.9859220181e+00 6.3482832049e-05 1.6565785774e+00 -2.8692782628e+00 1.6565785774e+00 2.8692782628e+00 
107800 4.9859220182e+00 6.3485509366e-05 1.6565785774e+00 -2.8692782628e+00 1.6565785774e+00 2.8692782628e+00 
107900 4.9859220183e+00 6.3488171307e-05 1.6565785774e+00 -2.8692782628e+00 1.6565785774e+00 2.8692782628e+00 
108000 4.9859220184e+00 6.3490817953e-05 1.6565785774e+00 -2.8692782628e+00 1.6565785774e+00 2.8692782628e+00 
108100 4.9859220185e+00 6.3493449385e-05 1.6565785774e+00 -2.8692782628e+00 1.6565785774e+00 2.8692782628e+00 
108200 4.9859220186e+00 6.3496065685e-05 1.6565785774e+00 -2.8692782628e+00 1.6565785774e+00 2.8692782628e+00 
108300 4.9859220187e+00 6.3498666932e-05 1.6565785774e+00 -2.8692782628e+00 1.6565785774e+00 2.8692782628e+00 
108400 4.9859220188e+00 6.3501253208e-05 1.6565785774e+00 -2.8692782628e+00 1.6565785774e+00 2.8692782628e+00 
108500 4.9859220189e+00 6.3503824589e-05 1.6565785774e+00 -2.8692782628e+00 1.6565785774e+00 2.8692782628e+00 
108600 4.9859220190e+00 6.3506381159e-05 1.6565785774e+00 -2.8692782628e+00 1.6565785774e+00 2.8692782628e+00 
108700 4.9859220191e+00 6.3508922994e-05 1.6565785774e+00 -2.8692782628e+00 1.6565785774e+00 2.8692782628e+00 
108800 4.9859220192e+00 6.3511450174e-05 1.6565785774e+00 -2.8692782628e+00 1.6565785774e+00 2.8692782628e+00 
108900 4.9859220193e+00 6.3513962777e-05 1.6565785774e+00 -2.8692782628e+00 1.6565785774e+00 2.8692782628e+00 
109000 4.9859220194e+00 6.3516460881e-05 1.6565785774e+00 -2.8692782628e+00 1.6565785774e+00 2.8692782628e+00 
109100 4.9859220194e+00 6.3518944564e-05 1.6565785774e+00 -2.8692782628e+00 1.6565785774e+00 2.8692782628e+00 
109200 4.9859220195e+00 6.3521413904e-05 1.6565785774e+00 -2.8692782628e+00 1.6565785774e+00 2.8692782628e+00 
109300 4.9859220196e+00 6.3523868978e-05 1.6565785774e+00 -2.8692782628e+00 1.6565785774e+00 2.8692782628e+00 
109400 4.9859220197e+00 6.3526309862e-05 1.6565785774e+00 -2.8692782628e+00 1.6565785774e+00 2.8692782628e+00 
109500 4.9859220198e+00 6.3528736632e-05 1.6565785774e+00 -2.8692782628e+00 1.6565785774e+00 2.8692782628e+00 
109600 4.9859220199e+00 6.3531149366e-05 1.6565785774e+00 -2.8692782628e+00 1.6565785774e+00 2.8692782628e+00 
109700 4.9859220200e+00 6.3533548138e-05 1.6565785774e+00 -2.8692782628e+00 1.6565785774e+00 2.8692782628e+00 
109800 4.9859220201e+00 6.3535933026e-05 1.6565785774e+00 -2.8692782628e+00 1.6565785774e+00 2.8692782628e+00 
109900 4.9859220201e+00 6.3538304103e-05 1.6565785774e+00 -2.8692782628e+00 1.6565785774e+00 2.8692782628e+00 
110000 4.9859220202e+00 6.3540661444e-05 1.6565785774e+00 -2.8692782628e+00 1.6565785774e+00 2.8692782628e+00 
110100 4.9859220203e+00 6.3543005124e-05 1.6565785774e+00 -2.8692782628e+00 1.6565785774e+00 2.8692782628e+00 
110200 4.9859220204e+00 6.3545335217e-05 1.6565785774e+00 -2.8692782628e+00 1.6565785774e+00 2.8692782628e+00 
110300 4.9859220205e+00 6.3547651797e-05 1.6565785774e+00 -2.8692782628e+00 1.6565785774e+00 2.8692782628e+00 
110400 4.9859220206e+00 6.3549954938e-05 1.6565785774e+00 -2.8692782628e+00 1.6565785774e+00 2.8692782628e+00 
110500 4.9859220206e+00 6.3552244712e-05 1.6565785774e+00 -2.8692782628e+00 1.6565785774e+00 2.8692782628e+00 
110600 4.9859220207e+00 6.3554521194e-05 1.6565785774e+00 -2.8692782628e+00 1.6565785774e+00 2.8692782628e+00 
110700 4.9859220208e+00 6.3556784454e-05 1.6565785774e+00 -2.8692782628e+00 1.6565785774e+00 2.8692782628e+00 
110800 4.9859220209e+00 6.3559034566e-05 1.6565785774e+00 -2.8692782628e+00 1.6565785774e+00 2.8692782628e+00 
110900 4.9859220209e+00 6.3561271601e-05 1.6565785774e+00 -2.8692782628e+00 1.6565785774e+00 2.8692782628e+00 
111000 4.9859220210e+00 6.3563495631e-05 1.6565785774e+00 -2.8692782628e+00 1.6565785774e+00 2.8692782628e+00 
111100 4.9859220211e+00 6.3565706727e-05 1.6565785774e+00 -2.8692782628e+00 1.6565785774e+00 2.8692782628e+00 
111200 4.9859220212e+00 6.3567904961e-05 1.6565785774e+00 -2.8692782628e+00 1.6565785774e+00 2.8692782628e+00 
111300 4.9859220212e+00 6.3570090402e-05 1.6565785774e+00 -2.8692782628e+00 1.6565785774e+00 2.8692782628e+00 
111400 4.9859220213e+00 6.3572263121e-05 1.6565785774e+00 -2.8692782628e+00 1.6565785774e+00 2.8692782628e+00 
111500 4.9859220214e+00 6.3574423189e-05 1.6565785774e+00 -2.8692782628e+00 1.6565785774e+00 2.8692782628e+00 
111600 4.9859220215e+00 6.3576570674e-05 1.6565785774e+00 -2.8692782628e+00 1.6565785774e+00 2.8692782628e+00 
111700 4.9859220215e+00 6.3578705646e-05 1.6565785774e+00 -2.8692782628e+00 1.6565785774e+00 2.8692782628e+00 
111800 4.9859220216e+00 6.3580828174e-05 1.6565785774e+00 -2.8692782628e+00 1.6565785774e+00 2.8692782628e+00 
111900 4.9859220217e+00 6.3582938327e-05 1.6565785774e+00 -2.8692782628e+00 1.6565785774e+00 2.8692782628e+00 
112000 4.9859220217e+00 6.3585036173e-05 1.6565785774e+00 -2.8692782628e+00 1.6565785774e+00 2.8692782628e+00 
112100 4.9859220218e+00 6.3587121780e-05 1.6565785774e+00 -2.8692782628e+00 1.6565785774e+00 2.8692782628e+00 
112200 4.9859220219e+00 6.3589195216e-05 1.6565785774e+00 -2.8692782628e+00 1.6565785774e+00 2.8692782628e+00 
112300 4.9859220219e+00 6.3591256549e-05 1.6565785774e+00 -2.8692782628e+00 1.6565785774e+00 2.8692782628e+00 
112400 4.9859220220e+00 6.3593305845e-05 1.6565785774e+00 -2.8692782628e+00 1.6565785774e+00 2.8692782628e+00 
112500 4.9859220220e+00 6.3595343171e-05 1.6565785774e+00 -2.8692782628e+00 1.6565785774e+00 2.8692782628e+00 
112600 4.9859220221e+00 6.3597368593e-05 1.6565785774e+00 -2.8692782628e+00 1.6565785774e+00 2.8692782628e+00 
112700 4.9859220222e+00 6.3599382179e-05 1.6565785774e+00 -2.8692782628e+00 1.6565785774e+00 2.8692782628e+00 
112800 4.9859220222e+00 6.3601383993e-05 1.6565785774e+00 -2.8692782628e+00 1.6565785774e+00 2.8692782628e+00 
112900 4.9859220223e+00 6.3603374101e-05 1.6565785774e+00 -2.8692782628e+00 1.6565785774e+00 2.8692782628e+00 
113000 4.9859220224e+00 6.3605352569e-05 1.6565785774e+00 -2.8692782628e+00 1.6565785774e+00 2.8692782628e+00 
113100 4.9859220224e+00 6.3607319461e-05 1.6565785774e+00 -2.8692782628e+00 1.6565785774e+00 2.8692782628e+00 
113200 4.9859220225e+00 6.3609274841e-05 1.6565785774e+00 -2.8692782628e+00 1.6565785774e+00 2.8692782628e+00 
113300 4.9859220225e+00 6.3611218775e-05 1.6565785774e+00 -2.8692782628e+00 1.6565785774e+00 2.8692782628e+00 
113400 4.9859220226e+00 6.3613151326e-05 1.6565785774e+00 -2.8692782628e+00 1.6565785774e+00 2.8692782628e+00 
113500 4.9859220226e+00 6.3615072558e-05 1.6565785774e+00 -2.8692782628e+00 1.6565785774e+00 2.8692782628e+00 
113600 4.9859220227e+00 6.3616982533e-05 1.6565785774e+00 -2.8692782628e+00 1.6565785774e+00 2.8692782628e+00 
113700 4.9859220228e+00 6.3618881316e-05 1.6565785774e+00 -2.8692782628e+00 1.6565785774e+00 2.8692782628e+00 
113800 4.9859220228e+00 6.3620768968e-05 1.6565785774e+00 -2.8692782628e+00 1.6565785774e+00 2.8692782628e+00 
113900 4.9859220229e+00 6.3622645553e-05 1.6565785774e+00 -2.8692782628e+00 1.6565785774e+00 2.8692782628e+00 
114000 4.9859220229e+00 6.3624511132e-05 1.6565785774e+00 -2.8692782628e+00 1.6565785774e+00 2.8692782628e+00 
114100 4.9859220230e+00 6.3626365767e-05 1.6565785774e+00 -2.8692782628e+00 1.6565785774e+00 2.8692782628e+00 
114200 4.9859220230e+00 6.3628209520e-05 1.6565785774e+00 -2.8692782628e+00 1.6565785774e+00 2.8692782628e+00 
114300 4.9859220231e+00 6.3630042452e-05 1.6565785774e+00 -2.8692782628e+00 1.6565785774e+00 2.8692782628e+00 
114400 4.9859220231e+00 6.3631864624e-05 1.6565785774e+00 -2.8692782628e+00 1.6565785774e+00 2.8692782628e+00 
114500 4.9859220232e+00 6.3633676095e-05 1.6565785774e+00 -2.8692782628e+00 1.6565785774e+00 2.8692782628e+00 
114600 4.9859220232e+00 6.3635476928e-05 1.6565785774e+00 -2.8692782628e+00 1.6565785774e+00 2.8692782628e+00 
114700 4.9859220232e+00 6.3635620537e-05 1.6565785774e+00 -2.8692782628e+00 1.6565785774e+00 2.8692782628e+00 
114700 4.9859220232e+00 6.3635620537e-05 1.6565785774e+00 -2.8692782628e+00 1.6565785774e+00 2.8692782628e+00 
