# step Hamiltonian StressXX CellTensor1 CellTensor2 CellTensor3 CellTensor4 
0 4.6586023642e+00 3.9486419785e-03 2.8237630504e+00 -4.8909010719e+00 2.8237630504e+00 4.8909010719e+00 
100 4.6455508201e+00 3.4945647193e-03 2.8237630504e+00 -4.8909010719e+00 2.8237630504e+00 4.8909010719e+00 
200 4.6339744746e+00 3.9393139101e-03 2.8237011729e+00 -4.8907938968e+00 2.8237011729e+00 4.8907938968e+00 
300 4.6237517891e+00 5.2287809092e-03 2.8236314187e+00 -4.8906730790e+00 2.8236314187e+00 4.8906730790e+00 
400 4.6147633556e+00 7.2970328156e-03 2.8235388296e+00 -4.8905127099e+00 2.8235388296e+00 4.8905127099e+00 
500 4.6068927680e+00 1.0079704416e-02 2.8234096127e+00 -4.8902888998e+00 2.8234096127e+00 4.8902888998e+00 
600 4.6000272420e+00 1.3514095255e-02 2.8232311122e+00 -4.8899797279e+00 2.8232311122e+00 4.8899797279e+00 
700 4.5940581661e+00 1.7539225408e-02 2.8229917782e+00 -4.8895651892e+00 2.8229917782e+00 4.8895651892e+00 
800 4.5888815861e+00 2.2095860019e-02 2.8226811343e+00 -4.8890271382e+00 2.8226811343e+00 4.8890271382e+00 
900 4.5843986248e+00 2.7126511806e-02 2.8222897449e+00 -4.8883492319e+00 2.8222897449e+00 4.8883492319e+00 
1000 4.5805158403e+00 3.2575429804e-02 2.8218091823e+00 -4.8875168729e+00 2.8218091823e+00 4.8875168729e+00 
1100 4.5771455262e+00 3.8388581559e-02 2.8212319937e+00 -4.8865171530e+00 2.8212319937e+00 4.8865171530e+00 
1200 4.5742059545e+00 4.4513634982e-02 2.8205516697e+00 -4.8853387973e+00 2.8205516697e+00 4.8853387973e+00 
1300 4.5716215638e+00 5.0899944925e-02 2.8197626120e+00 -4.8839721093e+00 2.8197626120e+00 4.8839721093e+00 
1400 4.5693230952e+00 5.7498548450e-02 2.8188601029e+00 -4.8824089176e+00 2.8188601029e+00 4.8824089176e+00 
1500 4.5672476741e+00 6.4262171591e-02 2.8178402744e+00 -4.8806425228e+00 2.8178402744e+00 4.8806425228e+00 
1600 4.5653388424e+00 7.1145249315e-02 2.8167000778e+00 -4.8786676444e+00 2.8167000778e+00 4.8786676444e+00 
1700 4.5635465377e+00 7.8103959279e-02 2.8154372538e+00 -4.8764803691e+00 2.8154372538e+00 4.8764803691e+00 
1800 4.5618270224e+00 8.5096268954e-02 2.8140503015e+00 -4.8740780972e+00 2.8140503015e+00 4.8740780972e+00 
1900 4.5601427633e+00 9.2081994807e-02 2.8125384478e+00 -4.8714594899e+00 2.8125384478e+00 4.8714594899e+00 
2000 4.5584622605e+00 9.9022871411e-02 2.8109016159e+00 -4.8686244137e+00 2.8109016159e+00 4.8686244137e+00 
2100 4.5567598302e+00 1.0588262777e-01 2.8091403923e+00 -4.8655738850e+00 2.8091403923e+00 4.8655738850e+00 
2200 4.5550153404e+00 1.1262706772e-01 2.8072559941e+00 -4.8623100117e+00 2.8072559941e+00 4.8623100117e+00 
2300 4.5532139048e+00 1.1922415096e-01 2.8052502340e+00 -4.8588359332e+00 2.8052502340e+00 4.8588359332e+00 
2400 4.5513455373e+00 1.2564407130e-01 2.8031254843e+00 -4.8551557589e+00 2.8031254843e+00 4.8551557589e+00 
2500 4.5494047712e+00 1.3185932883e-01 2.8008846407e+00 -4.8512745039e+00 2.8008846407e+00 4.8512745039e+00 
2600 4.5473902500e+00 1.3784479271e-01 2.7985310836e+00 -4.8471980233e+00 2.7985310836e+00 4.8471980233e+00 
2700 4.5453042926e+00 1.4357775215e-01 2.7960686389e+00 -4.8429329441e+00 2.7960686389e+00 4.8429329441e+00 
2800 4.5431524426e+00 1.4903795288e-01 2.7935015389e+00 -4.8384865964e+00 2.7935015389e+00 4.8384865964e+00 
2900 4.5409430057e+00 1.5420761770e-01 2.7908343807e+00 -4.8338669429e+00 2.7908343807e+00 4.8338669429e+00 
3000 4.5386865827e+00 1.5907144941e-01 2.7880720858e+00 -4.8290825078e+00 2.7880720858e+00 4.8290825078e+00 
3100 4.5363956060e+00 1.6361661555e-01 2.7852198587e+00 -4.8241423056e+00 2.7852198587e+00 4.8241423056e+00 
3200 4.5340838840e+00 1.6783271455e-01 2.7822831457e+00 -4.8190557694e+00 2.7822831457e+00 4.8190557694e+00 
3300 4.5317661624e+00 1.7171172346e-01 2.7792675943e+00 -4.8138326811e+00 2.7792675943e+00 4.8138326811e+00 
3400 4.5294577061e+00 1.7524792796e-01 2.7761790130e+00 -4.8084831014e+00 2.7761790130e+00 4.8084831014e+00 
3500 4.5271739078e+00 1.7843783559e-01 2.7730233324e+00 -4.8030173023e+00 2.7730233324e+00 4.8030173023e+00 
3600 4.5249299289e+00 1.8128007371e-01 2.7698065674e+00 -4.7974457018e+00 2.7698065674e+00 4.7974457018e+00 
3700 4.5227403747e+00 1.8377527392e-01 2.7665347805e+00 -4.7917788007e+00 2.7665347805e+00 4.7917788007e+00 
3800 4.5206190089e+00 1.8592594485e-01 2.7632140477e+00 -4.7860271227e+00 2.7632140477e+00 4.7860271227e+00 
3900 4.5185785083e+00 1.8773633564e-01 2.7598504253e+00 -4.7802011579e+00 2.7598504253e+00 4.7802011579e+00 
4000 4.5166302601e+00 1.8921229219e-01 2.7564499199e+00 -4.7743113098e+00 2.7564499199e+00 4.7743113098e+00 
4100 4.5147842012e+00 1.9036110866e-01 2.7530184594e+00 -4.7683678459e+00 2.7530184594e+00 4.7683678459e+00 
4200 4.5130487003e+00 1.9119137641e-01 2.7495618677e+00 -4.7623808535e+00 2.7495618677e+00 4.7623808535e+00 
4300 4.5114304804e+00 1.9171283258e-01 2.7460858406e+00 -4.7563601979e+00 2.7460858406e+00 4.7563601979e+00 
4400 4.5099345813e+00 1.9193621025e-01 2.7425959249e+00 -4.7503154865e+00 2.7425959249e+00 4.7503154865e+00 
4500 4.5085643578e+00 1.9187309205e-01 2.7390974995e+00 -4.7442560360e+00 2.7390974995e+00 4.7442560360e+00 
4600 4.5073215120e+00 1.9153576885e-01 2.7355957594e+00 -4.7381908443e+00 2.7355957594e+00 4.7381908443e+00 
4700 4.5062061553e+00 1.9093710472e-01 2.7320957016e+00 -4.7321285664e+00 2.7320957016e+00 4.7321285664e+00 
4800 4.5052168966e+00 1.9009040935e-01 2.7286021133e+00 -4.7260774940e+00 2.7286021133e+00 4.7260774940e+00 
4900 4.5043509526e+00 1.8900931869e-01 2.7251195625e+00 -4.7200455389e+00 2.7251195625e+00 4.7200455389e+00 
5000 4.5036042756e+00 1.8770768441e-01 2.7216523902e+00 -4.7140402204e+00 2.7216523902e+00 4.7140402204e+00 
5100 4.5029716954e+00 1.8619947262e-01 2.7182047053e+00 -4.7080686550e+00 2.7182047053e+00 4.7080686550e+00 
5200 4.5024470704e+00 1.8449867180e-01 2.7147803804e+00 -4.7021375503e+00 2.7147803804e+00 4.7021375503e+00 
5300 4.5020234450e+00 1.8261921017e-01 2.7113830497e+00 -4.6962532009e+00 2.7113830497e+00 4.6962532009e+00 
5400 4.5016932086e+00 1.8057488216e-01 2.7080161083e+00 -4.6904214873e+00 2.7080161083e+00 4.6904214873e+00 
5500 4.5014482539e+00 1.7837928378e-01 2.7046827126e+00 -4.6846478766e+00 2.7046827126e+00 4.6846478766e+00 
5600 4.5012801306e+00 1.7604575646e-01 2.7013857826e+00 -4.6789374263e+00 2.7013857826e+00 4.6789374263e+00 
5700 4.5011801930e+00 1.7358733888e-01 2.6981280043e+00 -4.6732947887e+00 2.6981280043e+00 4.6732947887e+00 
5800 4.5011397382e+00 1.7101672643e-01 2.6949118336e+00 -4.6677242177e+00 2.6949118336e+00 4.6677242177e+00 
5900 4.5011501341e+00 1.6834623746e-01 2.6917395011e+00 -4.6622295766e+00 2.6917395011e+00 4.6622295766e+00 
6000 4.5012029358e+00 1.6558778606e-01 2.6886130172e+00 -4.6568143476e+00 2.6886130172e+00 4.6568143476e+00 
6100 4.5012899880e+00 1.6275286057e-01 2.6855341780e+00 -4.6514816418e+00 2.6855341780e+00 4.6514816418e+00 
6200 4.5014035152e+00 1.5985250741e-01 2.6825045718e+00 -4.6462342099e+00 2.6825045718e+00 4.6462342099e+00 
6300 4.5015361971e+00 1.5689731951e-01 2.6795255856e+00 -4.6410744545e+00 2.6795255856e+00 4.6410744545e+00 
6400 4.5016812307e+00 1.5389742900e-01 2.6765984123e+00 -4.6360044415e+00 2.6765984123e+00 4.6360044415e+00 
6500 4.5018323789e+00 1.5086250347e-01 2.6737240579e+00 -4.6310259136e+00 2.6737240579e+00 4.6310259136e+00 
6600 4.5019840056e+00 1.4780174543e-01 2.6709033490e+00 -4.6261403025e+00 2.6709033490e+00 4.6261403025e+00 
6700 4.5021310994e+00 1.4472389448e-01 2.6681369404e+00 -4.6213487423e+00 2.6681369404e+00 4.6213487423e+00 
6800 4.5022692845e+00 1.4163723185e-01 2.6654253226e+00 -4.6166520825e+00 2.6654253226e+00 4.6166520825e+00 
6900 4.5023948223e+00 1.3854958678e-01 2.6627688295e+00 -4.6120509015e+00 2.6627688295e+00 4.6120509015e+00 
7000 4.5025046027e+00 1.3546834450e-01 2.6601676461e+00 -4.6075455197e+00 2.6601676461e+00 4.6075455197e+00 
7100 4.5025961273e+00 1.3240045556e-01 2.6576218157e+00 -4.6031360121e+00 2.6576218157e+00 4.6031360121e+00 
7200 4.5026674850e+00 1.2935244607e-01 2.6551312478e+00 -4.5988222219e+00 2.6551312478e+00 4.5988222219e+00 
7300 4.5027173217e+00 1.2633042864e-01 2.6526957250e+00 -4.5946037728e+00 2.6526957250e+00 4.5946037728e+00 
7400 4.5027448044e+00 1.2334011397e-01 2.6503149109e+00 -4.5904800817e+00 2.6503149109e+00 4.5904800817e+00 
7500 4.5027495818e+00 1.2038682265e-01 2.6479883562e+00 -4.5864503708e+00 2.6479883562e+00 4.5864503708e+00 
7600 4.5027317413e+00 1.1747549711e-01 2.6457155067e+00 -4.5825136799e+00 2.6457155067e+00 4.5825136799e+00 
7700 4.5026917641e+00 1.1461071369e-01 2.6434957091e+00 -4.5786688778e+00 2.6434957091e+00 4.5786688778e+00 
7800 4.5026304792e+00 1.1179669446e-01 2.6413282187e+00 -4.5749146742e+00 2.6413282187e+00 4.5749146742e+00 
7900 4.5025490162e+00 1.0903731895e-01 2.6392122046e+00 -4.5712496303e+00 2.6392122046e+00 4.5712496303e+00 
8000 4.5024487590e+00 1.0633613555e-01 2.6371467571e+00 -4.5676721703e+00 2.6371467571e+00 4.5676721703e+00 
8100 4.5023313005e+00 1.0369637254e-01 2.6351308933e+00 -4.5641805917e+00 2.6351308933e+00 4.5641805917e+00 
8200 4.5021983978e+00 1.0112094875e-01 2.6331635629e+00 -4.5607730756e+00 2.6331635629e+00 4.5607730756e+00 
8300 4.5020519300e+00 9.8612483830e-02 2.6312436547e+00 -4.5574476970e+00 2.6312436547e+00 4.5574476970e+00 
8400 4.5018938586e+00 9.6173308031e-02 2.6293700013e+00 -4.5542024341e+00 2.6293700013e+00 4.5542024341e+00 
8500 4.5017261891e+00 9.3805471555e-02 2.6275413855e+00 -4.5510351786e+00 2.6275413855e+00 4.5510351786e+00 
8600 4.5015509373e+00 9.1510753477e-02 2.6257565450e+00 -4.5479437443e+00 2.6257565450e+00 4.5479437443e+00 
8700 4.5013700969e+00 8.9290670235e-02 2.6240141781e+00 -4.5449258763e+00 2.6240141781e+00 4.5449258763e+00 
8800 4.5011856116e+00 8.7146483710e-02 2.6223129485e+00 -4.5419792601e+00 2.6223129485e+00 4.5419792601e+00 
8900 4.5009993498e+00 8.5079208934e-02 2.6206514901e+00 -4.5391015299e+00 2.6206514901e+00 4.5391015299e+00 
9000 4.5008130825e+00 8.3089621453e-02 2.6190284124e+00 -4.5362902768e+00 2.6190284124e+00 4.5362902768e+00 
9100 4.5006284651e+00 8.1178264394e-02 2.6174423046e+00 -4.5335430575e+00 2.6174423046e+00 4.5335430575e+00 
9200 4.5004470216e+00 7.9345455254e-02 2.6158917405e+00 -4.5308574016e+00 2.6158917405e+00 4.5308574016e+00 
9300 4.5002701327e+00 7.7591292497e-02 2.6143752828e+00 -4.5282308198e+00 2.6143752828e+00 4.5282308198e+00 
9400 4.5000990261e+00 7.5915661958e-02 2.6128914876e+00 -4.5256608112e+00 2.6128914876e+00 4.5256608112e+00 
9500 4.4999347707e+00 7.4318243148e-02 2.6114389086e+00 -4.5231448706e+00 2.6114389086e+00 4.5231448706e+00 
9600 4.4997782726e+00 7.2798515475e-02 2.6100161013e+00 -4.5206804960e+00 2.6100161013e+00 4.5206804960e+00 
9700 4.4996302742e+00 7.1355764451e-02 2.6086216266e+00 -4.5182651949e+00 2.6086216266e+00 4.5182651949e+00 
9800 4.4994913554e+00 6.9989087923e-02 2.6072540552e+00 -4.5158964918e+00 2.6072540552e+00 4.5158964918e+00 
9900 4.4993619370e+00 6.8697402381e-02 2.6059119712e+00 -4.5135719341e+00 2.6059119712e+00 4.5135719341e+00 
10000 4.4992422864e+00 6.7479449384e-02 2.6045939756e+00 -4.5112890988e+00 2.6045939756e+00 4.5112890988e+00 
10100 4.4991325241e+00 6.6333802145e-02 2.6032986902e+00 -4.5090455986e+00 2.6032986902e+00 4.5090455986e+00 
10200 4.4990326331e+00 6.5258872326e-02 2.6020247605e+00 -4.5068390877e+00 2.6020247605e+00 4.5068390877e+00 
10300 4.4989424681e+00 6.4252917058e-02 2.6007708595e+00 -4.5046672675e+00 2.6007708595e+00 4.5046672675e+00 
10400 4.4988617672e+00 6.3314046238e-02 2.5995356906e+00 -4.5025278921e+00 2.5995356906e+00 4.5025278921e+00 
10500 4.4987901633e+00 6.2440230119e-02 2.5983179904e+00 -4.5004187736e+00 2.5983179904e+00 4.5004187736e+00 
10600 4.4987271966e+00 6.1629307217e-02 2.5971165321e+00 -4.4983377867e+00 2.5971165321e+00 4.4983377867e+00 
10700 4.4986723280e+00 6.0878992550e-02 2.5959301276e+00 -4.4962828739e+00 2.5959301276e+00 4.4962828739e+00 
10800 4.4986249519e+00 6.0186886222e-02 2.5947576306e+00 -4.4942520495e+00 2.5947576306e+00 4.4942520495e+00 
10900 4.4985844098e+00 5.9550482360e-02 2.5935979385e+00 -4.4922434038e+00 2.5935979385e+00 4.4922434038e+00 
11000 4.4985500034e+00 5.8967178389e-02 2.5924499948e+00 -4.4902551070e+00 2.5924499948e+00 4.4902551070e+00 
11100 4.4985210071e+00 5.8434284657e-02 2.5913127913e+00 -4.4882854128e+00 2.5913127913e+00 4.4882854128e+00 
11200 4.4984966812e+00 5.7949034375e-02 2.5901853696e+00 -4.4863326611e+00 2.5901853696e+00 4.4863326611e+00 
11300 4.4984762831e+00 5.7508593864e-02 2.5890668229e+00 -4.4843952815e+00 2.5890668229e+00 4.4843952815e+00 
11400 4.4984590789e+00 5.7110073078e-02 2.5879562977e+00 -4.4824717954e+00 2.5879562977e+00 4.4824717954e+00 
11500 4.4984443534e+00 5.6750536368e-02 2.5868529944e+00 -4.4805608181e+00 2.5868529944e+00 4.4805608181e+00 
11600 4.4984314200e+00 5.6427013451e-02 2.5857561690e+00 -4.4786610607e+00 2.5857561690e+00 4.4786610607e+00 
11700 4.4984196286e+00 5.6136510527e-02 2.5846651333e+00 -4.4767713315e+00 2.5846651333e+00 4.4767713315e+00 
11800 4.4984083734e+00 5.5876021518e-02 2.5835792562e+00 -4.4748905370e+00 2.5835792562e+00 4.4748905370e+00 
11900 4.4983970991e+00 5.5642539344e-02 2.5824979632e+00 -4.4730176827e+00 2.5824979632e+00 4.4730176827e+00 
12000 4.4983853057e+00 5.5433067201e-02 2.5814207374e+00 -4.4711518728e+00 2.5814207374e+00 4.4711518728e+00 
12100 4.4983725531e+00 5.5244629770e-02 2.5803471188e+00 -4.4692923110e+00 2.5803471188e+00 4.4692923110e+00 
12200 4.4983584635e+00 5.5074284298e-02 2.5792767045e+00 -4.4674382991e+00 2.5792767045e+00 4.4674382991e+00 
12300 4.4983427232e+00 5.4919131470e-02 2.5782091478e+00 -4.4655892366e+00 2.5782091478e+00 4.4655892366e+00 
12400 4.4983250833e+00 5.4776326033e-02 2.5771441577e+00 -4.4637446195e+00 2.5771441577e+00 4.4637446195e+00 
12500 4.4983053594e+00 5.4643087082e-02 2.5760814977e+00 -4.4619040384e+00 2.5760814977e+00 4.4619040384e+00 
12600 4.4982834301e+00 5.4516707961e-02 2.5750209851e+00 -4.4600671767e+00 2.5750209851e+00 4.4600671767e+00 
12700 4.4982592346e+00 5.4394565698e-02 2.5739624894e+00 -4.4582338085e+00 2.5739624894e+00 4.4582338085e+00 
12800 4.4982327699e+00 5.4274129940e-02 2.5729059309e+00 -4.4564037953e+00 2.5729059309e+00 4.4564037953e+00 
12900 4.4982040867e+00 5.4152971310e-02 2.5718512786e+00 -4.4545770841e+00 2.5718512786e+00 4.4545770841e+00 
13000 4.4981732850e+00 5.4028769149e-02 2.5707985491e+00 -4.4527537030e+00 2.5707985491e+00 4.4527537030e+00 
13100 4.4981405091e+00 5.3899318586e-02 2.5697478038e+00 -4.4509337589e+00 2.5697478038e+00 4.4509337589e+00 
13200 4.4981059424e+00 5.3762536911e-02 2.5686991474e+00 -4.4491174327e+00 2.5686991474e+00 4.4491174327e+00 
13300 4.4980698013e+00 5.3616469209e-02 2.5676527250e+00 -4.4473049760e+00 2.5676527250e+00 4.4473049760e+00 
13400 4.4980323297e+00 5.3459293219e-02 2.5666087203e+00 -4.4454967067e+00 2.5666087203e+00 4.4454967067e+00 
13500 4.4979937927e+00 5.3289323423e-02 2.5655673524e+00 -4.4436930046e+00 2.5655673524e+00 4.4436930046e+00 
13600 4.4979544706e+00 5.3105014324e-02 2.5645288740e+00 -4.4418943072e+00 2.5645288740e+00 4.4418943072e+00 
13700 4.4979146532e+00 5.2904962929e-02 2.5634935681e+00 -4.4401011047e+00 2.5634935681e+00 4.4401011047e+00 
13800 4.4978746342e+00 5.2687910429e-02 2.5624617455e+00 -4.4383139356e+00 2.5624617455e+00 4.4383139356e+00 
13900 4.4978347054e+00 5.2452743083e-02 2.5614337421e+00 -4.4365333815e+00 2.5614337421e+00 4.4365333815e+00 
14000 4.4977951521e+00 5.2198492323e-02 2.5604099161e+00 -4.4347600629e+00 2.5604099161e+00 4.4347600629e+00 
14100 4.4977562481e+00 5.1924334106e-02 2.5593906452e+00 -4.4329946339e+00 2.5593906452e+00 4.4329946339e+00 
14200 4.4977182518e+00 5.1629587532e-02 2.5583763236e+00 -4.4312377774e+00 2.5583763236e+00 4.4312377774e+00 
14300 4.4976814025e+00 5.1313712763e-02 2.5573673596e+00 -4.4294902005e+00 2.5573673596e+00 4.4294902005e+00 
14400 4.4976459173e+00 5.0976308282e-02 2.5563641726e+00 -4.4277526296e+00 2.5563641726e+00 4.4277526296e+00 
14500 4.4976119885e+00 5.0617107530e-02 2.5553671903e+00 -4.4260258057e+00 2.5553671903e+00 4.4260258057e+00 
14600 4.4975797817e+00 5.0235974967e-02 2.5543768466e+00 -4.4243104801e+00 2.5543768466e+00 4.4243104801e+00 
14700 4.4975494345e+00 4.9832901604e-02 2.5533935784e+00 -4.4226074096e+00 2.5533935784e+00 4.4226074096e+00 
14800 4.4975210555e+00 4.9408000051e-02 2.5524178235e+00 -4.4209173525e+00 2.5524178235e+00 4.4209173525e+00 
14900 4.4974947241e+00 4.8961499141e-02 2.5514500181e+00 -4.4192410643e+00 2.5514500181e+00 4.4192410643e+00 
15000 4.4974704905e+00 4.8493738174e-02 2.5504905945e+00 -4.4175792938e+00 2.5504905945e+00 4.4175792938e+00 
15100 4.4974483770e+00 4.8005160833e-02 2.5495399788e+00 -4.4159327793e+00 2.5495399788e+00 4.4159327793e+00 
15200 4.4974283781e+00 4.7496308832e-02 2.5485985893e+00 -4.4143022448e+00 2.5485985893e+00 4.4143022448e+00 
15300 4.4974104630e+00 4.6967815334e-02 2.5476668338e+00 -4.4126883969e+00 2.5476668338e+00 4.4126883969e+00 
15400 4.4973945769e+00 4.6420398202e-02 2.5467451085e+00 -4.4110919218e+00 2.5467451085e+00 4.4110919218e+00 
15500 4.4973806430e+00 4.5854853127e-02 2.5458337957e+00 -4.4095134817e+00 2.5458337957e+00 4.4095134817e+00 
15600 4.4973685652e+00 4.5272046671e-02 2.5449332626e+00 -4.4079537128e+00 2.5449332626e+00 4.4079537128e+00 
15700 4.4973582304e+00 4.4672909287e-02 2.5440438600e+00 -4.4064132221e+00 2.5440438600e+00 4.4064132221e+00 
15800 4.4973495111e+00 4.4058428338e-02 2.5431659203e+00 -4.4048925861e+00 2.5431659203e+00 4.4048925861e+00 
15900 4.4973422683e+00 4.3429641170e-02 2.5422997573e+00 -4.4033923477e+00 2.5422997573e+00 4.4033923477e+00 
16000 4.4973363538e+00 4.2787628268e-02 2.5414456643e+00 -4.4019130152e+00 2.5414456643e+00 4.4019130152e+00 
16100 4.4973316132e+00 4.2133506528e-02 2.5406039137e+00 -4.4004550605e+00 2.5406039137e+00 4.4004550605e+00 
16200 4.4973278886e+00 4.1468422677e-02 2.5397747563e+00 -4.3990189177e+00 2.5397747563e+00 4.3990189177e+00 
16300 4.4973250207e+00 4.0793546874e-02 2.5389584201e+00 -4.3976049819e+00 2.5389584201e+00 4.3976049819e+00 
16400 4.4973228515e+00 4.0110066499e-02 2.5381551105e+00 -4.3962136088e+00 2.5381551105e+00 4.3962136088e+00 
16500 4.4973212265e+00 3.9419180179e-02 2.5373650093e+00 -4.3948451135e+00 2.5373650093e+00 4.3948451135e+00 
16600 4.4973199964e+00 3.8722092039e-02 2.5365882750e+00 -4.3934997703e+00 2.5365882750e+00 4.3934997703e+00 
16700 4.4973190191e+00 3.8020006220e-02 2.5358250422e+00 -4.3921778122e+00 2.5358250422e+00 4.3921778122e+00 
16800 4.4973181612e+00 3.7314121658e-02 2.5350754216e+00 -4.3908794313e+00 2.5350754216e+00 4.3908794313e+00 
16900 4.4973172994e+00 3.6605627148e-02 2.5343395004e+00 -4.3896047784e+00 2.5343395004e+00 4.3896047784e+00 
17000 4.4973163215e+00 3.5895696693e-02 2.5336173421e+00 -4.3883539634e+00 2.5336173421e+00 4.3883539634e+00 
17100 4.4973151272e+00 3.5185485144e-02 2.5329089868e+00 -4.3871270561e+00 2.5329089868e+00 4.3871270561e+00 
17200 4.4973136290e+00 3.4476124142e-02 2.5322144519e+00 -4.3859240863e+00 2.5322144519e+00 4.3859240863e+00 
17300 4.4973117521e+00 3.3768718353e-02 2.5315337319e+00 -4.3847450447e+00 2.5315337319e+00 4.3847450447e+00 
17400 4.4973094350e+00 3.3064342009e-02 2.5308667995e+00 -4.3835898840e+00 2.5308667995e+00 4.3835898840e+00 
17500 4.4973066293e+00 3.2364035735e-02 2.5302136059e+00 -4.3824585195e+00 2.5302136059e+00 4.3824585195e+00 
17600 4.4973032993e+00 3.1668803682e-02 2.5295740814e+00 -4.3813508306e+00 2.5295740814e+00 4.3813508306e+00 
17700 4.4972994219e+00 3.0979610941e-02 2.5289481362e+00 -4.3802666616e+00 2.5289481362e+00 4.3802666616e+00 
17800 4.4972949860e+00 3.0297381245e-02 2.5283356610e+00 -4.3792058234e+00 2.5283356610e+00 4.3792058234e+00 
17900 4.4972899915e+00 2.9622994943e-02 2.5277365280e+00 -4.3781680947e+00 2.5277365280e+00 4.3781680947e+00 
18000 4.4972844490e+00 2.8957287251e-02 2.5271505918e+00 -4.3771532233e+00 2.5271505918e+00 4.3771532233e+00 
18100 4.4972783784e+00 2.8301046755e-02 2.5265776898e+00 -4.3761609280e+00 2.5265776898e+00 4.3761609280e+00 
18200 4.4972718082e+00 2.7655014179e-02 2.5260176436e+00 -4.3751908996e+00 2.5260176436e+00 4.3751908996e+00 
18300 4.4972647745e+00 2.7019881378e-02 2.5254702600e+00 -4.3742428033e+00 2.5254702600e+00 4.3742428033e+00 
18400 4.4972573200e+00 2.6396290585e-02 2.5249353314e+00 -4.3733162797e+00 2.5249353314e+00 4.3733162797e+00 
18500 4.4972494926e+00 2.5784833862e-02 2.5244126372e+00 -4.3724109469e+00 2.5244126372e+00 4.3724109469e+00 
18600 4.4972413446e+00 2.5186052778e-02 2.5239019448e+00 -4.3715264018e+00 2.5239019448e+00 4.3715264018e+00 
18700 4.4972329315e+00 2.4600438277e-02 2.5234030106e+00 -4.3706622223e+00 2.5234030106e+00 4.3706622223e+00 
18800 4.4972243111e+00 2.4028430751e-02 2.5229155806e+00 -4.3698179688e+00 2.5229155806e+00 4.3698179688e+00 
18900 4.4972155424e+00 2.3470420281e-02 2.5224393920e+00 -4.3689931859e+00 2.5224393920e+00 4.3689931859e+00 
19000 4.4972066848e+00 2.2926747060e-02 2.5219741737e+00 -4.3681874042e+00 2.5219741737e+00 4.3681874042e+00 
19100 4.4971977969e+00 2.2397701966e-02 2.5215196476e+00 -4.3674001420e+00 2.5215196476e+00 4.3674001420e+00 
19200 4.4971889360e+00 2.1883527292e-02 2.5210755297e+00 -4.3666309071e+00 2.5210755297e+00 4.3666309071e+00 
19300 4.4971801573e+00 2.1384417618e-02 2.5206415304e+00 -4.3658791983e+00 2.5206415304e+00 4.3658791983e+00 
19400 4.4971715132e+00 2.0900520803e-02 2.5202173563e+00 -4.3651445072e+00 2.5202173563e+00 4.3651445072e+00 
19500 4.4971630527e+00 2.0431939110e-02 2.5198027105e+00 -4.3644263197e+00 2.5198027105e+00 4.3644263197e+00 
19600 4.4971548209e+00 1.9978730430e-02 2.5193972940e+00 -4.3637241177e+00 2.5193972940e+00 4.3637241177e+00 
19700 4.4971468588e+00 1.9540909621e-02 2.5190008062e+00 -4.3630373807e+00 2.5190008062e+00 4.3630373807e+00 
19800 4.4971392029e+00 1.9118449930e-02 2.5186129459e+00 -4.3623655870e+00 2.5186129459e+00 4.3623655870e+00 
19900 4.4971318846e+00 1.8711284500e-02 2.5182334122e+00 -4.3617082153e+00 2.5182334122e+00 4.3617082153e+00 
20000 4.4971249307e+00 1.8319307964e-02 2.5178619053e+00 -4.3610647464e+00 2.5178619053e+00 4.3610647464e+00 
20100 4.4971183629e+00 1.7942378093e-02 2.5174981271e+00 -4.3604346640e+00 2.5174981271e+00 4.3604346640e+00 
20200 4.4971121979e+00 1.7580317512e-02 2.5171417821e+00 -4.3598174565e+00 2.5171417821e+00 4.3598174565e+00 
20300 4.4971064474e+00 1.7232915469e-02 2.5167925783e+00 -4.3592126177e+00 2.5167925783e+00 4.3592126177e+00 
20400 4.4971011186e+00 1.6899929645e-02 2.5164502274e+00 -4.3586196485e+00 2.5164502274e+00 4.3586196485e+00 
20500 4.4970962138e+00 1.6581088008e-02 2.5161144458e+00 -4.3580380577e+00 2.5161144458e+00 4.3580380577e+00 
20600 4.4970917310e+00 1.6276090692e-02 2.5157849551e+00 -4.3574673631e+00 2.5157849551e+00 4.3574673631e+00 
20700 4.4970876643e+00 1.5984611905e-02 2.5154614826e+00 -4.3569070924e+00 2.5154614826e+00 4.3569070924e+00 
20800 4.4970840039e+00 1.5706301855e-02 2.5151437621e+00 -4.3563567843e+00 2.5151437621e+00 4.3563567843e+00 
20900 4.4970807367e+00 1.5440788680e-02 2.5148315339e+00 -4.3558159892e+00 2.5148315339e+00 4.3558159892e+00 
21000 4.4970778463e+00 1.5187680401e-02 2.5145245456e+00 -4.3552842699e+00 2.5145245456e+00 4.3552842699e+00 
21100 4.4970753141e+00 1.4946566853e-02 2.5142225526e+00 -4.3547612027e+00 2.5142225526e+00 4.3547612027e+00 
21200 4.4970731188e+00 1.4717021628e-02 2.5139253182e+00 -4.3542463775e+00 2.5139253182e+00 4.3542463775e+00 
21300 4.4970712376e+00 1.4498603997e-02 2.5136326138e+00 -4.3537393987e+00 2.5136326138e+00 4.3537393987e+00 
21400 4.4970696459e+00 1.4290860818e-02 2.5133442199e+00 -4.3532398858e+00 2.5133442199e+00 4.3532398858e+00 
21500 4.4970683184e+00 1.4093328423e-02 2.5130599256e+00 -4.3527474736e+00 2.5130599256e+00 4.3527474736e+00 
21600 4.4970672289e+00 1.3905534474e-02 2.5127795290e+00 -4.3522618125e+00 2.5127795290e+00 4.3522618125e+00 
21700 4.4970663508e+00 1.3726999794e-02 2.5125028379e+00 -4.3517825693e+00 2.5125028379e+00 4.3517825693e+00 
21800 4.4970656578e+00 1.3557240154e-02 2.5122296690e+00 -4.3513094270e+00 2.5122296690e+00 4.3513094270e+00 
21900 4.4970651236e+00 1.3395768027e-02 2.5119598490e+00 -4.3508420850e+00 2.5119598490e+00 4.3508420850e+00 
22000 4.4970647229e+00 1.3242094289e-02 2.5116932139e+00 -4.3503802595e+00 2.5116932139e+00 4.3503802595e+00 
22100 4.4970644311e+00 1.3095729877e-02 2.5114296096e+00 -4.3499236835e+00 2.5114296096e+00 4.3499236835e+00 
22200 4.4970642247e+00 1.2956187392e-02 2.5111688915e+00 -4.3494721065e+00 2.5111688915e+00 4.3494721065e+00 
22300 4.4970640817e+00 1.2822982643e-02 2.5109109247e+00 -4.3490252948e+00 2.5109109247e+00 4.3490252948e+00 
22400 4.4970639815e+00 1.2695636137e-02 2.5106555838e+00 -4.3485830314e+00 2.5106555838e+00 4.3485830314e+00 
22500 4.4970639053e+00 1.2573674502e-02 2.5104027529e+00 -4.3481451155e+00 2.5104027529e+00 4.3481451155e+00 
22600 4.4970638359e+00 1.2456631842e-02 2.5101523257e+00 -4.3477113628e+00 2.5101523257e+00 4.3477113628e+00 
22700 4.4970637581e+00 1.2344051029e-02 2.5099042047e+00 -4.3472816048e+00 2.5099042047e+00 4.3472816048e+00 
22800 4.4970636586e+00 1.2235484919e-02 2.5096583019e+00 -4.3468556886e+00 2.5096583019e+00 4.3468556886e+00 
22900 4.4970635259e+00 1.2130497500e-02 2.5094145379e+00 -4.3464334770e+00 2.5094145379e+00 4.3464334770e+00 
23000 4.4970633507e+00 1.2028664960e-02 2.5091728421e+00 -4.3460148474e+00 2.5091728421e+00 4.3460148474e+00 
23100 4.4970631252e+00 1.1929576681e-02 2.5089331521e+00 -4.3455996922e+00 2.5089331521e+00 4.3455996922e+00 
23200 4.4970628438e+00 1.1832836155e-02 2.5086954138e+00 -4.3451879174e+00 2.5086954138e+00 4.3451879174e+00 
23300 4.4970625025e+00 1.1738061825e-02 2.5084595810e+00 -4.3447794431e+00 2.5084595810e+00 4.3447794431e+00 
23400 4.4970620990e+00 1.1644887836e-02 2.5082256152e+00 -4.3443742023e+00 2.5082256152e+00 4.3443742023e+00 
23500 4.4970616325e+00 1.1552964720e-02 2.5079934848e+00 -4.3439721407e+00 2.5079934848e+00 4.3439721407e+00 
23600 4.4970611037e+00 1.1461959990e-02 2.5077631654e+00 -4.3435732159e+00 2.5077631654e+00 4.3435732159e+00 
23700 4.4970605146e+00 1.1371558659e-02 2.5075346393e+00 -4.3431773971e+00 2.5075346393e+00 4.3431773971e+00 
23800 4.4970598685e+00 1.1281463680e-02 2.5073078950e+00 -4.3427846643e+00 2.5073078950e+00 4.3427846643e+00 
23900 4.4970591694e+00 1.1191396306e-02 2.5070829267e+00 -4.3423950078e+00 2.5070829267e+00 4.3423950078e+00 
24000 4.4970584225e+00 1.1101096373e-02 2.5068597344e+00 -4.3420084275e+00 2.5068597344e+00 4.3420084275e+00 
24100 4.4970576334e+00 1.1010322505e-02 2.5066383233e+00 -4.3416249322e+00 2.5066383233e+00 4.3416249322e+00 
24200 4.4970568086e+00 1.0918852246e-02 2.5064187032e+00 -4.3412445390e+00 2.5064187032e+00 4.3412445390e+00 
24300 4.4970559548e+00 1.0826482120e-02 2.5062008886e+00 -4.3408672730e+00 2.5062008886e+00 4.3408672730e+00 
24400 4.4970550790e+00 1.0733027619e-02 2.5059848978e+00 -4.3404931660e+00 2.5059848978e+00 4.3404931660e+00 
24500 4.4970541884e+00 1.0638323115e-02 2.5057707529e+00 -4.3401222562e+00 2.5057707529e+00 4.3401222562e+00 
24600 4.4970532902e+00 1.0542221724e-02 2.5055584795e+00 -4.3397545878e+00 2.5055584795e+00 4.3397545878e+00 
24700 4.4970523915e+00 1.0444595083e-02 2.5053481057e+00 -4.3393902098e+00 2.5053481057e+00 4.3393902098e+00 
24800 4.4970514991e+00 1.0345333084e-02 2.5051396626e+00 -4.3390291758e+00 2.5051396626e+00 4.3390291758e+00 
24900 4.4970506197e+00 1.0244343543e-02 2.5049331833e+00 -4.3386715431e+00 2.5049331833e+00 4.3386715431e+00 
25000 4.4970497594e+00 1.0141551815e-02 2.5047287027e+00 -4.3383173723e+00 2.5047287027e+00 4.3383173723e+00 
25100 4.4970489240e+00 1.0036900354e-02 2.5045262573e+00 -4.3379667266e+00 2.5045262573e+00 4.3379667266e+00 
25200 4.4970481185e+00 9.9303482316e-03 2.5043258848e+00 -4.3376196712e+00 2.5043258848e+00 4.3376196712e+00 
25300 4.4970473478e+00 9.8218706063e-03 2.5041276235e+00 -4.3372762726e+00 2.5041276235e+00 4.3372762726e+00 
25400 4.4970466158e+00 9.7114581515e-03 2.5039315125e+00 -4.3369365982e+00 2.5039315125e+00 4.3369365982e+00 
25500 4.4970459259e+00 9.5991164476e-03 2.5037375908e+00 -4.3366007160e+00 2.5037375908e+00 4.3366007160e+00 
25600 4.4970452809e+00 9.4848653382e-03 2.5035458975e+00 -4.3362686935e+00 2.5035458975e+00 4.3362686935e+00 
25700 4.4970446829e+00 9.3687382573e-03 2.5033564712e+00 -4.3359405976e+00 2.5033564712e+00 4.3359405976e+00 
25800 4.4970441333e+00 9.2507815285e-03 2.5031693500e+00 -4.3356164942e+00 2.5031693500e+00 4.3356164942e+00 
25900 4.4970436330e+00 9.1310536417e-03 2.5029845709e+00 -4.3352964474e+00 2.5029845709e+00 4.3352964474e+00 
26000 4.4970431824e+00 9.0096245093e-03 2.5028021698e+00 -4.3349805194e+00 2.5028021698e+00 4.3349805194e+00 
26100 4.4970427810e+00 8.8865747074e-03 2.5026221812e+00 -4.3346687701e+00 2.5026221812e+00 4.3346687701e+00 
26200 4.4970424281e+00 8.7619947031e-03 2.5024446381e+00 -4.3343612563e+00 2.5024446381e+00 4.3343612563e+00 
26300 4.4970421224e+00 8.6359840734e-03 2.5022695714e+00 -4.3340580319e+00 2.5022695714e+00 4.3340580319e+00 
26400 4.4970418621e+00 8.5086507183e-03 2.5020970104e+00 -4.3337591474e+00 2.5020970104e+00 4.3337591474e+00 
26500 4.4970416452e+00 8.3801100701e-03 2.5019269819e+00 -4.3334646495e+00 2.5019269819e+00 4.3334646495e+00 
26600 4.4970414692e+00 8.2504843047e-03 2.5017595107e+00 -4.3331745808e+00 2.5017595107e+00 4.3331745808e+00 
26700 4.4970413314e+00 8.1199015551e-03 2.5015946188e+00 -4.3328889798e+00 2.5015946188e+00 4.3328889798e+00 
26800 4.4970412289e+00 7.9884951317e-03 2.5014323261e+00 -4.3326078805e+00 2.5014323261e+00 4.3326078805e+00 
26900 4.4970411586e+00 7.8564027523e-03 2.5012726494e+00 -4.3323313123e+00 2.5012726494e+00 4.3323313123e+00 
27000 4.4970411173e+00 7.7237657826e-03 2.5011156029e+00 -4.3320592998e+00 2.5011156029e+00 4.3320592998e+00 
27100 4.4970411017e+00 7.5907284919e-03 2.5009611981e+00 -4.3317918628e+00 2.5009611981e+00 4.3317918628e+00 
27200 4.4970411086e+00 7.4574373250e-03 2.5008094434e+00 -4.3315290160e+00 2.5008094434e+00 4.3315290160e+00 
27300 4.4970411348e+00 7.3240401926e-03 2.5006603444e+00 -4.3312707690e+00 2.5006603444e+00 4.3312707690e+00 
27400 4.4970411771e+00 7.1906857828e-03 2.5005139037e+00 -4.3310171262e+00 2.5005139037e+00 4.3310171262e+00 
27500 4.4970412324e+00 7.0575228950e-03 2.5003701209e+00 -4.3307680871e+00 2.5003701209e+00 4.3307680871e+00 
27600 4.4970412979e+00 6.9246997976e-03 2.5002289927e+00 -4.3305236459e+00 2.5002289927e+00 4.3305236459e+00 
27700 4.4970413708e+00 6.7923636128e-03 2.5000905126e+00 -4.3302837914e+00 2.5000905126e+00 4.3302837914e+00 
27800 4.4970414487e+00 6.6606597269e-03 2.4999546715e+00 -4.3300485077e+00 2.4999546715e+00 4.3300485077e+00 
27900 4.4970415292e+00 6.5297312305e-03 2.4998214571e+00 -4.3298177735e+00 2.4998214571e+00 4.3298177735e+00 
28000 4.4970416103e+00 6.3997183871e-03 2.4996908543e+00 -4.3295915628e+00 2.4996908543e+00 4.3295915628e+00 
28100 4.4970416902e+00 6.2707581332e-03 2.4995628452e+00 -4.3293698446e+00 2.4995628452e+00 4.3293698446e+00 
28200 4.4970417673e+00 6.1429836083e-03 2.4994374091e+00 -4.3291525829e+00 2.4994374091e+00 4.3291525829e+00 
28300 4.4970418403e+00 6.0165237181e-03 2.4993145228e+00 -4.3289397376e+00 2.4993145228e+00 4.3289397376e+00 
28400 4.4970419081e+00 5.8915027284e-03 2.4991941603e+00 -4.3287312636e+00 2.4991941603e+00 4.3287312636e+00 
28500 4.4970419700e+00 5.7680398930e-03 2.4990762932e+00 -4.3285271118e+00 2.4990762932e+00 4.3285271118e+00 
28600 4.4970420254e+00 5.6462491137e-03 2.4989608906e+00 -4.3283272287e+00 2.4989608906e+00 4.3283272287e+00 
28700 4.4970420739e+00 5.5262386331e-03 2.4988479195e+00 -4.3281315570e+00 2.4988479195e+00 4.3281315570e+00 
28800 4.4970421155e+00 5.4081107606e-03 2.4987373446e+00 -4.3279400357e+00 2.4987373446e+00 4.3279400357e+00 
28900 4.4970421501e+00 5.2919616306e-03 2.4986291285e+00 -4.3277525999e+00 2.4986291285e+00 4.3277525999e+00 
29000 4.4970421782e+00 5.1778809932e-03 2.4985232320e+00 -4.3275691817e+00 2.4985232320e+00 4.3275691817e+00 
29100 4.4970422000e+00 5.0659520369e-03 2.4984196139e+00 -4.3273897098e+00 2.4984196139e+00 4.3273897098e+00 
29200 4.4970422161e+00 4.9562512428e-03 2.4983182314e+00 -4.3272141103e+00 2.4983182314e+00 4.3272141103e+00 
29300 4.4970422272e+00 4.8488482694e-03 2.4982190403e+00 -4.3270423063e+00 2.4982190403e+00 4.3270423063e+00 
29400 4.4970422341e+00 4.7438058675e-03 2.4981219949e+00 -4.3268742186e+00 2.4981219949e+00 4.3268742186e+00 
29500 4.4970422376e+00 4.6411798247e-03 2.4980270480e+00 -4.3267097658e+00 2.4980270480e+00 4.3267097658e+00 
29600 4.4970422386e+00 4.5410189383e-03 2.4979341517e+00 -4.3265488647e+00 2.4979341517e+00 4.3265488647e+00 
29700 4.4970422380e+00 4.4433650159e-03 2.4978432567e+00 -4.3263914300e+00 2.4978432567e+00 4.3263914300e+00 
29800 4.4970422369e+00 4.3482529022e-03 2.4977543132e+00 -4.3262373754e+00 2.4977543132e+00 4.3262373754e+00 
29900 4.4970422362e+00 4.2557105318e-03 2.4976672705e+00 -4.3260866129e+00 2.4976672705e+00 4.3260866129e+00 
30000 4.4970422367e+00 4.1657590062e-03 2.4975820773e+00 -4.3259390539e+00 2.4975820773e+00 4.3259390539e+00 
30100 4.4970422394e+00 4.0784126942e-03 2.4974986819e+00 -4.3257946089e+00 2.4974986819e+00 4.3257946089e+00 
30200 4.4970422452e+00 3.9936793544e-03 2.4974170324e+00 -4.3256531878e+00 2.4974170324e+00 4.3256531878e+00 
30300 4.4970422549e+00 3.9115602783e-03 2.4973370766e+00 -4.3255147004e+00 2.4973370766e+00 4.3255147004e+00 
30400 4.4970422691e+00 3.8320504533e-03 2.4972587624e+00 -4.3253790562e+00 2.4972587624e+00 4.3253790562e+00 
30500 4.4970422886e+00 3.7551387442e-03 2.4971820377e+00 -4.3252461650e+00 2.4971820377e+00 4.3252461650e+00 
30600 4.4970423138e+00 3.6808080908e-03 2.4971068505e+00 -4.3251159370e+00 2.4971068505e+00 4.3251159370e+00 
30700 4.4970423453e+00 3.6090357226e-03 2.4970331494e+00 -4.3249882830e+00 2.4970331494e+00 4.3249882830e+00 
30800 4.4970423834e+00 3.5397933866e-03 2.4969608833e+00 -4.3248631144e+00 2.4969608833e+00 4.3248631144e+00 
30900 4.4970424285e+00 3.4730475888e-03 2.4968900016e+00 -4.3247403437e+00 2.4968900016e+00 4.3247403437e+00 
31000 4.4970424806e+00 3.4087598471e-03 2.4968204545e+00 -4.3246198845e+00 2.4968204545e+00 4.3246198845e+00 
31100 4.4970425399e+00 3.3468869549e-03 2.4967521928e+00 -4.3245016518e+00 2.4967521928e+00 4.3245016518e+00 
31200 4.4970426065e+00 3.2873812533e-03 2.4966851682e+00 -4.3243855619e+00 2.4966851682e+00 4.3243855619e+00 
31300 4.4970426802e+00 3.2301909115e-03 2.4966193336e+00 -4.3242715330e+00 2.4966193336e+00 4.3242715330e+00 
31400 4.4970427608e+00 3.1752602132e-03 2.4965546426e+00 -4.3241594849e+00 2.4965546426e+00 4.3241594849e+00 
31500 4.4970428482e+00 3.1225298487e-03 2.4964910500e+00 -4.3240493393e+00 2.4964910500e+00 4.3240493393e+00 
31600 4.4970429420e+00 3.0719372103e-03 2.4964285119e+00 -4.3239410201e+00 2.4964285119e+00 4.3239410201e+00 
31700 4.4970430419e+00 3.0234166908e-03 2.4963669855e+00 -4.3238344533e+00 2.4963669855e+00 4.3238344533e+00 
31800 4.4970431474e+00 2.9768999838e-03 2.4963064294e+00 -4.3237295670e+00 2.4963064294e+00 4.3237295670e+00 
31900 4.4970432581e+00 2.9323163836e-03 2.4962468036e+00 -4.3236262920e+00 2.4962468036e+00 4.3236262920e+00 
32000 4.4970433734e+00 2.8895930853e-03 2.4961880693e+00 -4.3235245613e+00 2.4961880693e+00 4.3235245613e+00 
32100 4.4970434929e+00 2.8486554822e-03 2.4961301894e+00 -4.3234243104e+00 2.4961301894e+00 4.3234243104e+00 
32200 4.4970436160e+00 2.8094274611e-03 2.4960731282e+00 -4.3233254774e+00 2.4960731282e+00 4.3233254774e+00 
32300 4.4970437421e+00 2.7718316931e-03 2.4960168515e+00 -4.3232280033e+00 2.4960168515e+00 4.3232280033e+00 
32400 4.4970438707e+00 2.7357899206e-03 2.4959613266e+00 -4.3231318313e+00 2.4959613266e+00 4.3231318313e+00 
32500 4.4970440011e+00 2.7012232374e-03 2.4959065224e+00 -4.3230369078e+00 2.4959065224e+00 4.3230369078e+00 
32600 4.4970441330e+00 2.6680523632e-03 2.4958524096e+00 -4.3229431816e+00 2.4958524096e+00 4.3229431816e+00 
32700 4.4970442656e+00 2.6361979107e-03 2.4957989600e+00 -4.3228506042e+00 2.4957989600e+00 4.3228506042e+00 
32800 4.4970443985e+00 2.6055806445e-03 2.4957461475e+00 -4.3227591303e+00 2.4957461475e+00 4.3227591303e+00 
32900 4.4970445312e+00 2.5761217310e-03 2.4956939473e+00 -4.3226687168e+00 2.4956939473e+00 4.3226687168e+00 
33000 4.4970446633e+00 2.5477429795e-03 2.4956423361e+00 -4.3225793237e+00 2.4956423361e+00 4.3225793237e+00 
33100 4.4970447943e+00 2.5203670732e-03 2.4955912924e+00 -4.3224909134e+00 2.4955912924e+00 4.3224909134e+00 
33200 4.4970449238e+00 2.4939177899e-03 2.4955407962e+00 -4.3224034514e+00 2.4955407962e+00 4.3224034514e+00 
33300 4.4970450516e+00 2.4683202109e-03 2.4954908289e+00 -4.3223169055e+00 2.4954908289e+00 4.3223169055e+00 
33400 4.4970451773e+00 2.4435009202e-03 2.4954413735e+00 -4.3222312462e+00 2.4954413735e+00 4.3222312462e+00 
33500 4.4970453006e+00 2.4193881904e-03 2.4953924143e+00 -4.3221464464e+00 2.4953924143e+00 4.3221464464e+00 
33600 4.4970454214e+00 2.3959121578e-03 2.4953439374e+00 -4.3220624819e+00 2.4953439374e+00 4.3220624819e+00 
33700 4.4970455395e+00 2.3730049847e-03 2.4952959299e+00 -4.3219793305e+00 2.4952959299e+00 4.3219793305e+00 
33800 4.4970456548e+00 2.3506010094e-03 2.4952483805e+00 -4.3218969725e+00 2.4952483805e+00 4.3218969725e+00 
33900 4.4970457672e+00 2.3286368837e-03 2.4952012791e+00 -4.3218153905e+00 2.4952012791e+00 4.3218153905e+00 
34000 4.4970458766e+00 2.3070516975e-03 2.4951546169e+00 -4.3217345692e+00 2.4951546169e+00 4.3217345692e+00 
34100 4.4970459831e+00 2.2857870914e-03 2.4951083864e+00 -4.3216544957e+00 2.4951083864e+00 4.3216544957e+00 
34200 4.4970460866e+00 2.2647873558e-03 2.4950625812e+00 -4.3215751587e+00 2.4950625812e+00 4.3215751587e+00 
34300 4.4970461873e+00 2.2439995177e-03 2.4950171959e+00 -4.3214965491e+00 2.4950171959e+00 4.3214965491e+00 
34400 4.4970462853e+00 2.2233734153e-03 2.4949722265e+00 -4.3214186597e+00 2.4949722265e+00 4.3214186597e+00 
34500 4.4970463805e+00 2.2028617596e-03 2.4949276695e+00 -4.3213414848e+00 2.4949276695e+00 4.3213414848e+00 
34600 4.4970464733e+00 2.1824201842e-03 2.4948835228e+00 -4.3212650205e+00 2.4948835228e+00 4.3212650205e+00 
34700 4.4970465637e+00 2.1620072830e-03 2.4948397850e+00 -4.3211892644e+00 2.4948397850e+00 4.3211892644e+00 
34800 4.4970466519e+00 2.1415846363e-03 2.4947964556e+00 -4.3211142156e+00 2.4947964556e+00 4.3211142156e+00 
34900 4.4970467381e+00 2.1211168252e-03 2.4947535347e+00 -4.3210398744e+00 2.4947535347e+00 4.3210398744e+00 
35000 4.4970468225e+00 2.1005714352e-03 2.4947110233e+00 -4.3209662425e+00 2.4947110233e+00 4.3209662425e+00 
35100 4.4970469053e+00 2.0799190488e-03 2.4946689229e+00 -4.3208933225e+00 2.4946689229e+00 4.3208933225e+00 
35200 4.4970469866e+00 2.0591332277e-03 2.4946272357e+00 -4.3208211182e+00 2.4946272357e+00 4.3208211182e+00 
35300 4.4970470667e+00 2.0381904855e-03 2.4945859645e+00 -4.3207496343e+00 2.4945859645e+00 4.3207496343e+00 
35400 4.4970471457e+00 2.0170702504e-03 2.4945451123e+00 -4.3206788763e+00 2.4945451123e+00 4.3206788763e+00 
35500 4.4970472239e+00 1.9957548190e-03 2.4945046828e+00 -4.3206088503e+00 2.4945046828e+00 4.3206088503e+00 
35600 4.4970473013e+00 1.9742293015e-03 2.4944646799e+00 -4.3205395632e+00 2.4944646799e+00 4.3205395632e+00 
35700 4.4970473782e+00 1.9524815587e-03 2.4944251078e+00 -4.3204710223e+00 2.4944251078e+00 4.3204710223e+00 
35800 4.4970474547e+00 1.9305021315e-03 2.4943859710e+00 -4.3204032354e+00 2.4943859710e+00 4.3204032354e+00 
35900 4.4970475310e+00 1.9082841638e-03 2.4943472741e+00 -4.3203362105e+00 2.4943472741e+00 4.3203362105e+00 
36000 4.4970476071e+00 1.8858233174e-03 2.4943090221e+00 -4.3202699560e+00 2.4943090221e+00 4.3202699560e+00 
36100 4.4970476832e+00 1.8631176826e-03 2.4942712196e+00 -4.3202044802e+00 2.4942712196e+00 4.3202044802e+00 
36200 4.4970477593e+00 1.8401676820e-03 2.4942338718e+00 -4.3201397919e+00 2.4942338718e+00 4.3201397919e+00 
36300 4.4970478356e+00 1.8169759703e-03 2.4941969834e+00 -4.3200758994e+00 2.4941969834e+00 4.3200758994e+00 
36400 4.4970479120e+00 1.7935473284e-03 2.4941605595e+00 -4.3200128112e+00 2.4941605595e+00 4.3200128112e+00 
36500 4.4970479886e+00 1.7698885554e-03 2.4941246046e+00 -4.3199505356e+00 2.4941246046e+00 4.3199505356e+00 
36600 4.4970480655e+00 1.7460083550e-03 2.4940891235e+00 -4.3198890806e+00 2.4940891235e+00 4.3198890806e+00 
36700 4.4970481426e+00 1.7219172215e-03 2.4940541207e+00 -4.3198284539e+00 2.4940541207e+00 4.3198284539e+00 
36800 4.4970482199e+00 1.6976273211e-03 2.4940196003e+00 -4.3197686628e+00 2.4940196003e+00 4.3197686628e+00 
36900 4.4970482974e+00 1.6731523734e-03 2.4939855664e+00 -4.3197097144e+00 2.4939855664e+00 4.3197097144e+00 
37000 4.4970483752e+00 1.6485075300e-03 2.4939520228e+00 -4.3196516151e+00 2.4939520228e+00 4.3196516151e+00 
37100 4.4970484531e+00 1.6237092531e-03 2.4939189727e+00 -4.3195943708e+00 2.4939189727e+00 4.3195943708e+00 
37200 4.4970485310e+00 1.5987751939e-03 2.4938864194e+00 -4.3195379868e+00 2.4938864194e+00 4.3195379868e+00 
37300 4.4970486091e+00 1.5737240703e-03 2.4938543656e+00 -4.3194824679e+00 2.4938543656e+00 4.3194824679e+00 
37400 4.4970486870e+00 1.5485755455e-03 2.4938228136e+00 -4.3194278183e+00 2.4938228136e+00 4.3194278183e+00 
37500 4.4970487649e+00 1.5233501079e-03 2.4937917655e+00 -4.3193740413e+00 2.4937917655e+00 4.3193740413e+00 
37600 4.4970488426e+00 1.4980689521e-03 2.4937612227e+00 -4.3193211397e+00 2.4937612227e+00 4.3193211397e+00 
37700 4.4970489201e+00 1.4727538609e-03 2.4937311864e+00 -4.3192691153e+00 2.4937311864e+00 4.3192691153e+00 
37800 4.4970489972e+00 1.4474270909e-03 2.4937016574e+00 -4.3192179695e+00 2.4937016574e+00 4.3192179695e+00 
37900 4.4970490739e+00 1.4221112591e-03 2.4936726358e+00 -4.3191677026e+00 2.4936726358e+00 4.3191677026e+00 
38000 4.4970491501e+00 1.3968292333e-03 2.4936441214e+00 -4.3191183143e+00 2.4936441214e+00 4.3191183143e+00 
38100 4.4970492257e+00 1.3716040246e-03 2.4936161137e+00 -4.3190698035e+00 2.4936161137e+00 4.3190698035e+00 
38200 4.4970493008e+00 1.3464586845e-03 2.4935886114e+00 -4.3190221682e+00 2.4935886114e+00 4.3190221682e+00 
38300 4.4970493751e+00 1.3214162043e-03 2.4935616131e+00 -4.3189754056e+00 2.4935616131e+00 4.3189754056e+00 
38400 4.4970494486e+00 1.2964994192e-03 2.4935351165e+00 -4.3189295123e+00 2.4935351165e+00 4.3189295123e+00 
38500 4.4970495213e+00 1.2717309163e-03 2.4935091194e+00 -4.3188844839e+00 2.4935091194e+00 4.3188844839e+00 
38600 4.4970495932e+00 1.2471329465e-03 2.4934836186e+00 -4.3188403152e+00 2.4934836186e+00 4.3188403152e+00 
38700 4.4970496641e+00 1.2227273414e-03 2.4934586108e+00 -4.3187970005e+00 2.4934586108e+00 4.3187970005e+00 
38800 4.4970497340e+00 1.1985354342e-03 2.4934340921e+00 -4.3187545329e+00 2.4934340921e+00 4.3187545329e+00 
38900 4.4970498029e+00 1.1745779857e-03 2.4934100583e+00 -4.3187129051e+00 2.4934100583e+00 4.3187129051e+00 
39000 4.4970498708e+00 1.1508751148e-03 2.4933865047e+00 -4.3186721091e+00 2.4933865047e+00 4.3186721091e+00 
39100 4.4970499376e+00 1.1274462344e-03 2.4933634262e+00 -4.3186321359e+00 2.4933634262e+00 4.3186321359e+00 
39200 4.4970500034e+00 1.1043099914e-03 2.4933408173e+00 -4.3185929761e+00 2.4933408173e+00 4.3185929761e+00 
39300 4.4970500681e+00 1.0814842128e-03 2.4933186721e+00 -4.3185546196e+00 2.4933186721e+00 4.3185546196e+00 
39400 4.4970501317e+00 1.0589858555e-03 2.4932969845e+00 -4.3185170556e+00 2.4932969845e+00 4.3185170556e+00 
39500 4.4970501943e+00 1.0368309625e-03 2.4932757479e+00 -4.3184802727e+00 2.4932757479e+00 4.3184802727e+00 
39600 4.4970502558e+00 1.0150346229e-03 2.4932549554e+00 -4.3184442590e+00 2.4932549554e+00 4.3184442590e+00 
39700 4.4970503162e+00 9.9361093776e-04 2.4932345998e+00 -4.3184090020e+00 2.4932345998e+00 4.3184090020e+00 
39800 4.4970503756e+00 9.7257299047e-04 2.4932146737e+00 -4.3183744890e+00 2.4932146737e+00 4.3183744890e+00 
39900 4.4970504340e+00 9.5193282196e-04 2.4931951693e+00 -4.3183407064e+00 2.4931951693e+00 4.3183407064e+00 
40000 4.4970504914e+00 9.3170141086e-04 2.4931760787e+00 -4.3183076406e+00 2.4931760787e+00 4.3183076406e+00 
40100 4.4970505479e+00 9.1188865827e-04 2.4931573937e+00 -4.3182752772e+00 2.4931573937e+00 4.3182752772e+00 
40200 4.4970506034e+00 8.9250337713e-04 2.4931391059e+00 -4.3182436018e+00 2.4931391059e+00 4.3182436018e+00 
40300 4.4970506580e+00 8.7355328604e-04 2.4931212067e+00 -4.3182125995e+00 2.4931212067e+00 4.3182125995e+00 
40400 4.4970507118e+00 8.5504500738e-04 2.4931036875e+00 -4.3181822553e+00 2.4931036875e+00 4.3181822553e+00 
40500 4.4970507647e+00 8.3698406970e-04 2.4930865393e+00 -4.3181525537e+00 2.4930865393e+00 4.3181525537e+00 
40600 4.4970508169e+00 8.1937491408e-04 2.4930697532e+00 -4.3181234794e+00 2.4930697532e+00 4.3181234794e+00 
40700 4.4970508683e+00 8.0222090433e-04 2.4930533202e+00 -4.3180950165e+00 2.4930533202e+00 4.3180950165e+00 
40800 4.4970509189e+00 7.8552434098e-04 2.4930372311e+00 -4.3180671494e+00 2.4930372311e+00 4.3180671494e+00 
40900 4.4970509689e+00 7.6928647871e-04 2.4930214767e+00 -4.3180398621e+00 2.4930214767e+00 4.3180398621e+00 
41000 4.4970510182e+00 7.5350754713e-04 2.4930060480e+00 -4.3180131386e+00 2.4930060480e+00 4.3180131386e+00 
41100 4.4970510669e+00 7.3818677475e-04 2.4929909355e+00 -4.3179869632e+00 2.4929909355e+00 4.3179869632e+00 
41200 4.4970511150e+00 7.2332241581e-04 2.4929761303e+00 -4.3179613198e+00 2.4929761303e+00 4.3179613198e+00 
41300 4.4970511626e+00 7.0891177998e-04 2.4929616231e+00 -4.3179361926e+00 2.4929616231e+00 4.3179361926e+00 
41400 4.4970512095e+00 6.9495126447e-04 2.4929474049e+00 -4.3179115658e+00 2.4929474049e+00 4.3179115658e+00 
41500 4.4970512560e+00 6.8143638858e-04 2.4929334665e+00 -4.3178874239e+00 2.4929334665e+00 4.3178874239e+00 
41600 4.4970513019e+00 6.6836183032e-04 2.4929197992e+00 -4.3178637514e+00 2.4929197992e+00 4.3178637514e+00 
41700 4.4970513474e+00 6.5572146506e-04 2.4929063940e+00 -4.3178405329e+00 2.4929063940e+00 4.3178405329e+00 
41800 4.4970513924e+00 6.4350840574e-04 2.4928932423e+00 -4.3178177534e+00 2.4928932423e+00 4.3178177534e+00 
41900 4.4970514369e+00 6.3171504474e-04 2.4928803354e+00 -4.3177953981e+00 2.4928803354e+00 4.3177953981e+00 
42000 4.4970514810e+00 6.2033309698e-04 2.4928676650e+00 -4.3177734524e+00 2.4928676650e+00 4.3177734524e+00 
42100 4.4970515246e+00 6.0935364417e-04 2.4928552229e+00 -4.3177519020e+00 2.4928552229e+00 4.3177519020e+00 
42200 4.4970515678e+00 5.9876717995e-04 2.4928430009e+00 -4.3177307329e+00 2.4928430009e+00 4.3177307329e+00 
42300 4.4970516105e+00 5.8856365572e-04 2.4928309912e+00 -4.3177099314e+00 2.4928309912e+00 4.3177099314e+00 
42400 4.4970516529e+00 5.7873252706e-04 2.4928191861e+00 -4.3176894844e+00 2.4928191861e+00 4.3176894844e+00 
42500 4.4970516948e+00 5.6926280041e-04 2.4928075781e+00 -4.3176693787e+00 2.4928075781e+00 4.3176693787e+00 
42600 4.4970517362e+00 5.6014307993e-04 2.4927961600e+00 -4.3176496020e+00 2.4927961600e+00 4.3176496020e+00 
42700 4.4970517773e+00 5.5136161437e-04 2.4927849248e+00 -4.3176301420e+00 2.4927849248e+00 4.3176301420e+00 
42800 4.4970518179e+00 5.4290634371e-04 2.4927738656e+00 -4.3176109870e+00 2.4927738656e+00 4.3176109870e+00 
42900 4.4970518580e+00 5.3476494541e-04 2.4927629760e+00 -4.3175921257e+00 2.4927629760e+00 4.3175921257e+00 
43000 4.4970518977e+00 5.2692488027e-04 2.4927522497e+00 -4.3175735471e+00 2.4927522497e+00 4.3175735471e+00 
43100 4.4970519370e+00 5.1937343745e-04 2.4927416806e+00 -4.3175552409e+00 2.4927416806e+00 4.3175552409e+00 
43200 4.4970519758e+00 5.1209777881e-04 2.4927312628e+00 -4.3175371969e+00 2.4927312628e+00 4.3175371969e+00 
43300 4.4970520141e+00 5.0508498233e-04 2.4927209910e+00 -4.3175194056e+00 2.4927209910e+00 4.3175194056e+00 
43400 4.4970520520e+00 4.9832208432e-04 2.4927108598e+00 -4.3175018578e+00 2.4927108598e+00 4.3175018578e+00 
43500 4.4970520894e+00 4.9179612057e-04 2.4927008643e+00 -4.3174845450e+00 2.4927008643e+00 4.3174845450e+00 
43600 4.4970521264e+00 4.8549416619e-04 2.4926909995e+00 -4.3174674588e+00 2.4926909995e+00 4.3174674588e+00 
43700 4.4970521628e+00 4.7940337400e-04 2.4926812612e+00 -4.3174505915e+00 2.4926812612e+00 4.3174505915e+00 
43800 4.4970521988e+00 4.7351101146e-04 2.4926716450e+00 -4.3174339357e+00 2.4926716450e+00 4.3174339357e+00 
43900 4.4970522343e+00 4.6780449603e-04 2.4926621469e+00 -4.3174174846e+00 2.4926621469e+00 4.3174174846e+00 
44000 4.4970522693e+00 4.6227142890e-04 2.4926527633e+00 -4.3174012317e+00 2.4926527633e+00 4.3174012317e+00 
44100 4.4970523038e+00 4.5689962693e-04 2.4926434906e+00 -4.3173851709e+00 2.4926434906e+00 4.3173851709e+00 
44200 4.4970523379e+00 4.5167715288e-04 2.4926343257e+00 -4.3173692967e+00 2.4926343257e+00 4.3173692967e+00 
44300 4.4970523714e+00 4.4659234379e-04 2.4926252654e+00 -4.3173536040e+00 2.4926252654e+00 4.3173536040e+00 
44400 4.4970524044e+00 4.4163383750e-04 2.4926163072e+00 -4.3173380878e+00 2.4926163072e+00 4.3173380878e+00 
44500 4.4970524370e+00 4.3679059726e-04 2.4926074483e+00 -4.3173227438e+00 2.4926074483e+00 4.3173227438e+00 
44600 4.4970524691e+00 4.3205193439e-04 2.4925986866e+00 -4.3173075681e+00 2.4925986866e+00 4.3173075681e+00 
44700 4.4970525007e+00 4.2740752901e-04 2.4925900199e+00 -4.3172925570e+00 2.4925900199e+00 4.3172925570e+00 
44800 4.4970525319e+00 4.2284744887e-04 2.4925814464e+00 -4.3172777071e+00 2.4925814464e+00 4.3172777071e+00 
44900 4.4970525625e+00 4.1836216610e-04 2.4925729643e+00 -4.3172630157e+00 2.4925729643e+00 4.3172630157e+00 
45000 4.4970525927e+00 4.1394257209e-04 2.4925645721e+00 -4.3172484800e+00 2.4925645721e+00 4.3172484800e+00 
45100 4.4970526225e+00 4.0957999047e-04 2.4925562685e+00 -4.3172340978e+00 2.4925562685e+00 4.3172340978e+00 
45200 4.4970526518e+00 4.0526618800e-04 2.4925480525e+00 -4.3172198672e+00 2.4925480525e+00 4.3172198672e+00 
45300 4.4970526807e+00 4.0099338374e-04 2.4925399229e+00 -4.3172057864e+00 2.4925399229e+00 4.3172057864e+00 
45400 4.4970527091e+00 3.9675425626e-04 2.4925318791e+00 -4.3171918540e+00 2.4925318791e+00 4.3171918540e+00 
45500 4.4970527371e+00 3.9254194901e-04 2.4925239202e+00 -4.3171780689e+00 2.4925239202e+00 4.3171780689e+00 
45600 4.4970527647e+00 3.8835007393e-04 2.4925160458e+00 -4.3171644301e+00 2.4925160458e+00 4.3171644301e+00 
45700 4.4970527919e+00 3.8417271332e-04 2.4925082555e+00 -4.3171509368e+00 2.4925082555e+00 4.3171509368e+00 
45800 4.4970528187e+00 3.8000441999e-04 2.4925005490e+00 -4.3171375887e+00 2.4925005490e+00 4.3171375887e+00 
45900 4.4970528452e+00 3.7584021578e-04 2.4924929260e+00 -4.3171243854e+00 2.4924929260e+00 4.3171243854e+00 
46000 4.4970528712e+00 3.7167558852e-04 2.4924853866e+00 -4.3171113267e+00 2.4924853866e+00 4.3171113267e+00 
46100 4.4970528969e+00 3.6750648751e-04 2.4924779307e+00 -4.3170984126e+00 2.4924779307e+00 4.3170984126e+00 
46200 4.4970529222e+00 3.6332931744e-04 2.4924705583e+00 -4.3170856434e+00 2.4924705583e+00 4.3170856434e+00 
46300 4.4970529471e+00 3.5914093106e-04 2.4924632698e+00 -4.3170730193e+00 2.4924632698e+00 4.3170730193e+00 
46400 4.4970529718e+00 3.5493862053e-04 2.4924560653e+00 -4.3170605407e+00 2.4924560653e+00 4.3170605407e+00 
46500 4.4970529960e+00 3.5072010743e-04 2.4924489450e+00 -4.3170482080e+00 2.4924489450e+00 4.3170482080e+00 
46600 4.4970530200e+00 3.4648353182e-04 2.4924419094e+00 -4.3170360219e+00 2.4924419094e+00 4.3170360219e+00 
46700 4.4970530436e+00 3.4222744001e-04 2.4924349587e+00 -4.3170239830e+00 2.4924349587e+00 4.3170239830e+00 
46800 4.4970530670e+00 3.3795077154e-04 2.4924280934e+00 -4.3170120919e+00 2.4924280934e+00 4.3170120919e+00 
46900 4.4970530900e+00 3.3365284510e-04 2.4924213138e+00 -4.3170003494e+00 2.4924213138e+00 4.3170003494e+00 
47000 4.4970531127e+00 3.2933334370e-04 2.4924146205e+00 -4.3169887562e+00 2.4924146205e+00 4.3169887562e+00 
47100 4.4970531351e+00 3.2499229908e-04 2.4924080138e+00 -4.3169773130e+00 2.4924080138e+00 4.3169773130e+00 
47200 4.4970531572e+00 3.2063007545e-04 2.4924014941e+00 -4.3169660207e+00 2.4924014941e+00 4.3169660207e+00 
47300 4.4970531791e+00 3.1624735265e-04 2.4923950620e+00 -4.3169548799e+00 2.4923950620e+00 4.3169548799e+00 
47400 4.4970532006e+00 3.1184510881e-04 2.4923887177e+00 -4.3169438913e+00 2.4923887177e+00 4.3169438913e+00 
47500 4.4970532219e+00 3.0742460255e-04 2.4923824618e+00 -4.3169330557e+00 2.4923824618e+00 4.3169330557e+00 
47600 4.4970532429e+00 3.0298735490e-04 2.4923762945e+00 -4.3169223737e+00 2.4923762945e+00 4.3169223737e+00 
47700 4.4970532636e+00 2.9853513092e-04 2.4923702162e+00 -4.3169118458e+00 2.4923702162e+00 4.3169118458e+00 
47800 4.4970532841e+00 2.9406992110e-04 2.4923642272e+00 -4.3169014726e+00 2.4923642272e+00 4.3169014726e+00 
47900 4.4970533043e+00 2.8959392268e-04 2.4923583278e+00 -4.3168912545e+00 2.4923583278e+00 4.3168912545e+00 
48000 4.4970533242e+00 2.8510952091e-04 2.4923525182e+00 -4.3168811919e+00 2.4923525182e+00 4.3168811919e+00 
48100 4.4970533439e+00 2.8061927034e-04 2.4923467985e+00 -4.3168712851e+00 2.4923467985e+00 4.3168712851e+00 
48200 4.4970533634e+00 2.7612587616e-04 2.4923411689e+00 -4.3168615343e+00 2.4923411689e+00 4.3168615343e+00 
48300 4.4970533825e+00 2.7163217573e-04 2.4923356294e+00 -4.3168519397e+00 2.4923356294e+00 4.3168519397e+00 
48400 4.4970534014e+00 2.6714112032e-04 2.4923301801e+00 -4.3168425011e+00 2.4923301801e+00 4.3168425011e+00 
48500 4.4970534201e+00 2.6265575712e-04 2.4923248208e+00 -4.3168332186e+00 2.4923248208e+00 4.3168332186e+00 
48600 4.4970534385e+00 2.5817921153e-04 2.4923195515e+00 -4.3168240919e+00 2.4923195515e+00 4.3168240919e+00 
48700 4.4970534567e+00 2.5371466991e-04 2.4923143720e+00 -4.3168151208e+00 2.4923143720e+00 4.3168151208e+00 
48800 4.4970534746e+00 2.4926536271e-04 2.4923092821e+00 -4.3168063047e+00 2.4923092821e+00 4.3168063047e+00 
48900 4.4970534923e+00 2.4483454804e-04 2.4923042814e+00 -4.3167976433e+00 2.4923042814e+00 4.3167976433e+00 
49000 4.4970535097e+00 2.4042549587e-04 2.4922993696e+00 -4.3167891358e+00 2.4922993696e+00 4.3167891358e+00 
49100 4.4970535269e+00 2.3604147263e-04 2.4922945462e+00 -4.3167807815e+00 2.4922945462e+00 4.3167807815e+00 
49200 4.4970535439e+00 2.3168572654e-04 2.4922898108e+00 -4.3167725795e+00 2.4922898108e+00 4.3167725795e+00 
49300 4.4970535606e+00 2.2736147348e-04 2.4922851627e+00 -4.3167645288e+00 2.4922851627e+00 4.3167645288e+00 
49400 4.4970535770e+00 2.2307188357e-04 2.4922806014e+00 -4.3167566284e+00 2.4922806014e+00 4.3167566284e+00 
49500 4.4970535933e+00 2.1882006836e-04 2.4922761262e+00 -4.3167488770e+00 2.4922761262e+00 4.3167488770e+00 
49600 4.4970536093e+00 2.1460906877e-04 2.4922717362e+00 -4.3167412734e+00 2.4922717362e+00 4.3167412734e+00 
49700 4.4970536251e+00 2.1044184376e-04 2.4922674307e+00 -4.3167338161e+00 2.4922674307e+00 4.3167338161e+00 
49800 4.4970536407e+00 2.0632125971e-04 2.4922632088e+00 -4.3167265035e+00 2.4922632088e+00 4.3167265035e+00 
49900 4.4970536560e+00 2.0225008052e-04 2.4922590696e+00 -4.3167193342e+00 2.4922590696e+00 4.3167193342e+00 
50000 4.4970536711e+00 1.9823095855e-04 2.4922550120e+00 -4.3167123063e+00 2.4922550120e+00 4.3167123063e+00 
50100 4.4970536860e+00 1.9426642623e-04 2.4922510351e+00 -4.3167054180e+00 2.4922510351e+00 4.3167054180e+00 
50200 4.4970537007e+00 1.9035888852e-04 2.4922471377e+00 -4.3166986675e+00 2.4922471377e+00 4.3166986675e+00 
50300 4.4970537152e+00 1.8651061607e-04 2.4922433187e+00 -4.3166920528e+00 2.4922433187e+00 4.3166920528e+00 
50400 4.4970537294e+00 1.8272373917e-04 2.4922395769e+00 -4.3166855717e+00 2.4922395769e+00 4.3166855717e+00 
50500 4.4970537435e+00 1.7900024252e-04 2.4922359110e+00 -4.3166792223e+00 2.4922359110e+00 4.3166792223e+00 
50600 4.4970537573e+00 1.7534196061e-04 2.4922323198e+00 -4.3166730022e+00 2.4922323198e+00 4.3166730022e+00 
50700 4.4970537710e+00 1.7175057402e-04 2.4922288021e+00 -4.3166669093e+00 2.4922288021e+00 4.3166669093e+00 
50800 4.4970537844e+00 1.6822760627e-04 2.4922253564e+00 -4.3166609411e+00 2.4922253564e+00 4.3166609411e+00 
50900 4.4970537977e+00 1.6477442157e-04 2.4922219813e+00 -4.3166550954e+00 2.4922219813e+00 4.3166550954e+00 
51000 4.4970538108e+00 1.6139222305e-04 2.4922186755e+00 -4.3166493696e+00 2.4922186755e+00 4.3166493696e+00 
51100 4.4970538237e+00 1.5808205193e-04 2.4922154376e+00 -4.3166437613e+00 2.4922154376e+00 4.3166437613e+00 
51200 4.4970538364e+00 1.5484478711e-04 2.4922122661e+00 -4.3166382681e+00 2.4922122661e+00 4.3166382681e+00 
51300 4.4970538489e+00 1.5168114552e-04 2.4922091595e+00 -4.3166328874e+00 2.4922091595e+00 4.3166328874e+00 
51400 4.4970538613e+00 1.4859168308e-04 2.4922061164e+00 -4.3166276166e+00 2.4922061164e+00 4.3166276166e+00 
51500 4.4970538734e+00 1.4557679623e-04 2.4922031353e+00 -4.3166224531e+00 2.4922031353e+00 4.3166224531e+00 
51600 4.4970538854e+00 1.4263672398e-04 2.4922002146e+00 -4.3166173944e+00 2.4922002146e+00 4.3166173944e+00 
51700 4.4970538973e+00 1.3977155058e-04 2.4921973530e+00 -4.3166124379e+00 2.4921973530e+00 4.3166124379e+00 
51800 4.4970539090e+00 1.3698120860e-04 2.4921945488e+00 -4.3166075809e+00 2.4921945488e+00 4.3166075809e+00 
51900 4.4970539205e+00 1.3426548260e-04 2.4921918006e+00 -4.3166028208e+00 2.4921918006e+00 4.3166028208e+00 
52000 4.4970539318e+00 1.3162401311e-04 2.4921891069e+00 -4.3165981552e+00 2.4921891069e+00 4.3165981552e+00 
52100 4.4970539430e+00 1.2905630112e-04 2.4921864661e+00 -4.3165935813e+00 2.4921864661e+00 4.3165935813e+00 
52200 4.4970539541e+00 1.2656171295e-04 2.4921838769e+00 -4.3165890966e+00 2.4921838769e+00 4.3165890966e+00 
52300 4.4970539649e+00 1.2413948543e-04 2.4921813378e+00 -4.3165846987e+00 2.4921813378e+00 4.3165846987e+00 
52400 4.4970539757e+00 1.2178873140e-04 2.4921788472e+00 -4.3165803849e+00 2.4921788472e+00 4.3165803849e+00 
52500 4.4970539863e+00 1.1950844557e-04 2.4921764038e+00 -4.3165761527e+00 2.4921764038e+00 4.3165761527e+00 
52600 4.4970539967e+00 1.1729751055e-04 2.4921740061e+00 -4.3165719998e+00 2.4921740061e+00 4.3165719998e+00 
52700 4.4970540070e+00 1.1515470316e-04 2.4921716528e+00 -4.3165679238e+00 2.4921716528e+00 4.3165679238e+00 
52800 4.4970540172e+00 1.1307870089e-04 2.4921693424e+00 -4.3165639222e+00 2.4921693424e+00 4.3165639222e+00 
52900 4.4970540272e+00 1.1106808860e-04 2.4921670738e+00 -4.3165599927e+00 2.4921670738e+00 4.3165599927e+00 
53000 4.4970540371e+00 1.0912136527e-04 2.4921648454e+00 -4.3165561331e+00 2.4921648454e+00 4.3165561331e+00 
53100 4.4970540469e+00 1.0723695090e-04 2.4921626561e+00 -4.3165523411e+00 2.4921626561e+00 4.3165523411e+00 
53200 4.4970540565e+00 1.0541319347e-04 2.4921605046e+00 -4.3165486147e+00 2.4921605046e+00 4.3165486147e+00 
53300 4.4970540660e+00 1.0364837595e-04 2.4921583897e+00 -4.3165449516e+00 2.4921583897e+00 4.3165449516e+00 
53400 4.4970540754e+00 1.0194072333e-04 2.4921563103e+00 -4.3165413498e+00 2.4921563103e+00 4.3165413498e+00 
53500 4.4970540846e+00 1.0028840964e-04 2.4921542650e+00 -4.3165378073e+00 2.4921542650e+00 4.3165378073e+00 
53600 4.4970540938e+00 9.8689564931e-05 2.4921522529e+00 -4.3165343223e+00 2.4921522529e+00 4.3165343223e+00 
53700 4.4970541027e+00 9.7142282216e-05 2.4921502729e+00 -4.3165308928e+00 2.4921502729e+00 4.3165308928e+00 
53800 4.4970541116e+00 9.5644624294e-05 2.4921483240e+00 -4.3165275171e+00 2.4921483240e+00 4.3165275171e+00 
53900 4.4970541204e+00 9.4194630512e-05 2.4921464051e+00 -4.3165241935e+00 2.4921464051e+00 4.3165241935e+00 
54000 4.4970541290e+00 9.2790323354e-05 2.4921445152e+00 -4.3165209202e+00 2.4921445152e+00 4.3165209202e+00 
54100 4.4970541375e+00 9.1429714935e-05 2.4921426536e+00 -4.3165176957e+00 2.4921426536e+00 4.3165176957e+00 
54200 4.4970541459e+00 9.0110813278e-05 2.4921408192e+00 -4.3165145185e+00 2.4921408192e+00 4.3165145185e+00 
54300 4.4970541542e+00 8.8831628459e-05 2.4921390113e+00 -4.3165113871e+00 2.4921390113e+00 4.3165113871e+00 
54400 4.4970541623e+00 8.7590178506e-05 2.4921372291e+00 -4.3165083002e+00 2.4921372291e+00 4.3165083002e+00 
54500 4.4970541704e+00 8.6384495111e-05 2.4921354717e+00 -4.3165052564e+00 2.4921354717e+00 4.3165052564e+00 
54600 4.4970541783e+00 8.5212629107e-05 2.4921337386e+00 -4.3165022545e+00 2.4921337386e+00 4.3165022545e+00 
54700 4.4970541862e+00 8.4072655715e-05 2.4921320290e+00 -4.3164992933e+00 2.4921320290e+00 4.3164992933e+00 
54800 4.4970541939e+00 8.2962679507e-05 2.4921303422e+00 -4.3164963718e+00 2.4921303422e+00 4.3164963718e+00 
54900 4.4970542015e+00 8.1880839152e-05 2.4921286777e+00 -4.3164934888e+00 2.4921286777e+00 4.3164934888e+00 
55000 4.4970542090e+00 8.0825311857e-05 2.4921270349e+00 -4.3164906434e+00 2.4921270349e+00 4.3164906434e+00 
55100 4.4970542164e+00 7.9794317540e-05 2.4921254133e+00 -4.3164878347e+00 2.4921254133e+00 4.3164878347e+00 
55200 4.4970542237e+00 7.8786122729e-05 2.4921238124e+00 -4.3164850618e+00 2.4921238124e+00 4.3164850618e+00 
55300 4.4970542309e+00 7.7799044164e-05 2.4921222317e+00 -4.3164823239e+00 2.4921222317e+00 4.3164823239e+00 
55400 4.4970542380e+00 7.6831452114e-05 2.4921206708e+00 -4.3164796204e+00 2.4921206708e+00 4.3164796204e+00 
55500 4.4970542450e+00 7.5881773388e-05 2.4921191293e+00 -4.3164769505e+00 2.4921191293e+00 4.3164769505e+00 
55600 4.4970542519e+00 7.4948494061e-05 2.4921176069e+00 -4.3164743135e+00 2.4921176069e+00 4.3164743135e+00 
55700 4.4970542587e+00 7.4030161903e-05 2.4921161032e+00 -4.3164717090e+00 2.4921161032e+00 4.3164717090e+00 
55800 4.4970542654e+00 7.3125388512e-05 2.4921146179e+00 -4.3164691364e+00 2.4921146179e+00 4.3164691364e+00 
55900 4.4970542720e+00 7.2232851165e-05 2.4921131507e+00 -4.3164665953e+00 2.4921131507e+00 4.3164665953e+00 
56000 4.4970542785e+00 7.1351294357e-05 2.4921117015e+00 -4.3164640851e+00 2.4921117015e+00 4.3164640851e+00 
56100 4.4970542850e+00 7.0479531080e-05 2.4921102700e+00 -4.3164616056e+00 2.4921102700e+00 4.3164616056e+00 
56200 4.4970542914e+00 7.0169411600e-05 2.4921102700e+00 -4.3164616056e+00 2.4921102700e+00 4.3164616056e+00 
56300 4.4970542977e+00 6.9873571674e-05 2.4921102700e+00 -4.3164616056e+00 2.4921102700e+00 4.3164616056e+00 
56400 4.4970543040e+00 6.9591248205e-05 2.4921102700e+00 -4.3164616056e+00 2.4921102700e+00 4.3164616056e+00 
56500 4.4970543101e+00 6.9321695279e-05 2.4921102700e+00 -4.3164616056e+00 2.4921102700e+00 4.3164616056e+00 
56600 4.4970543162e+00 6.9064186400e-05 2.4921102700e+00 -4.3164616056e+00 2.4921102700e+00 4.3164616056e+00 
56700 4.4970543222e+00 6.8818016452e-05 2.4921102700e+00 -4.3164616056e+00 2.4921102700e+00 4.3164616056e+00 
56800 4.4970543281e+00 6.8582503341e-05 2.4921102700e+00 -4.3164616056e+00 2.4921102700e+00 4.3164616056e+00 
56900 4.4970543339e+00 6.8356989433e-05 2.4921102700e+00 -4.3164616056e+00 2.4921102700e+00 4.3164616056e+00 
57000 4.4970543396e+00 6.8140842708e-05 2.4921102700e+00 -4.3164616056e+00 2.4921102700e+00 4.3164616056e+00 
57100 4.4970543453e+00 6.7933457699e-05 2.4921102700e+00 -4.3164616056e+00 2.4921102700e+00 4.3164616056e+00 
57200 4.4970543508e+00 6.7734256211e-05 2.4921102700e+00 -4.3164616056e+00 2.4921102700e+00 4.3164616056e+00 
57300 4.4970543563e+00 6.7542687853e-05 2.4921102700e+00 -4.3164616056e+00 2.4921102700e+00 4.3164616056e+00 
57400 4.4970543617e+00 6.7358230367e-05 2.4921102700e+00 -4.3164616056e+00 2.4921102700e+00 4.3164616056e+00 
57500 4.4970543671e+00 6.7180389811e-05 2.4921102700e+00 -4.3164616056e+00 2.4921102700e+00 4.3164616056e+00 
57600 4.4970543724e+00 6.7008700555e-05 2.4921102700e+00 -4.3164616056e+00 2.4921102700e+00 4.3164616056e+00 
57700 4.4970543775e+00 6.6842725148e-05 2.4921102700e+00 -4.3164616056e+00 2.4921102700e+00 4.3164616056e+00 
57800 4.4970543827e+00 6.6682054057e-05 2.4921102700e+00 -4.3164616056e+00 2.4921102700e+00 4.3164616056e+00 
57900 4.4970543877e+00 6.6526305269e-05 2.4921102700e+00 -4.3164616056e+00 2.4921102700e+00 4.3164616056e+00 
58000 4.4970543927e+00 6.6375123801e-05 2.4921102700e+00 -4.3164616056e+00 2.4921102700e+00 4.3164616056e+00 
58100 4.4970543976e+00 6.6228181093e-05 2.4921102700e+00 -4.3164616056e+00 2.4921102700e+00 4.3164616056e+00 
58200 4.4970544025e+00 6.6085174333e-05 2.4921102700e+00 -4.3164616056e+00 2.4921102700e+00 4.3164616056e+00 
58300 4.4970544072e+00 6.5945825691e-05 2.4921102700e+00 -4.3164616056e+00 2.4921102700e+00 4.3164616056e+00 
58400 4.4970544119e+00 6.5809881481e-05 2.4921102700e+00 -4.3164616056e+00 2.4921102700e+00 4.3164616056e+00 
58500 4.4970544166e+00 6.5677111284e-05 2.4921102700e+00 -4.3164616056e+00 2.4921102700e+00 4.3164616056e+00 
58600 4.4970544212e+00 6.5547306992e-05 2.4921102700e+00 -4.3164616056e+00 2.4921102700e+00 4.3164616056e+00 
58700 4.4970544257e+00 6.5420281835e-05 2.4921102700e+00 -4.3164616056e+00 2.4921102700e+00 4.3164616056e+00 
58800 4.4970544302e+00 6.5295869364e-05 2.4921102700e+00 -4.3164616056e+00 2.4921102700e+00 4.3164616056e+00 
58900 4.4970544345e+00 6.5173922397e-05 2.4921102700e+00 -4.3164616056e+00 2.4921102700e+00 4.3164616056e+00 
59000 4.4970544389e+00 6.5054311968e-05 2.4921102700e+00 -4.3164616056e+00 2.4921102700e+00 4.3164616056e+00 
59100 4.4970544432e+00 6.4936926235e-05 2.4921102700e+00 -4.3164616056e+00 2.4921102700e+00 4.3164616056e+00 
59200 4.4970544474e+00 6.4821669404e-05 2.4921102700e+00 -4.3164616056e+00 2.4921102700e+00 4.3164616056e+00 
59300 4.4970544515e+00 6.4708460639e-05 2.4921102700e+00 -4.3164616056e+00 2.4921102700e+00 4.3164616056e+00 
59400 4.4970544556e+00 6.4597232972e-05 2.4921102700e+00 -4.3164616056e+00 2.4921102700e+00 4.3164616056e+00 
59500 4.4970544597e+00 6.4487932236e-05 2.4921102700e+00 -4.3164616056e+00 2.4921102700e+00 4.3164616056e+00 
59600 4.4970544637e+00 6.4380515997e-05 2.4921102700e+00 -4.3164616056e+00 2.4921102700e+00 4.3164616056e+00 
59700 4.4970544676e+00 6.4274952509e-05 2.4921102700e+00 -4.3164616056e+00 2.4921102700e+00 4.3164616056e+00 
59800 4.4970544715e+00 6.4171219691e-05 2.4921102700e+00 -4.3164616056e+00 2.4921102700e+00 4.3164616056e+00 
59900 4.4970544753e+00 6.4069304121e-05 2.4921102700e+00 -4.3164616056e+00 2.4921102700e+00 4.3164616056e+00 
60000 4.4970544791e+00 6.3969200073e-05 2.4921102700e+00 -4.3164616056e+00 2.4921102700e+00 4.3164616056e+00 
60100 4.4970544828e+00 6.3870908565e-05 2.4921102700e+00 -4.3164616056e+00 2.4921102700e+00 4.3164616056e+00 
60200 4.4970544865e+00 6.3774436455e-05 2.4921102700e+00 -4.3164616056e+00 2.4921102700e+00 4.3164616056e+00 
60300 4.4970544901e+00 6.3679795559e-05 2.4921102700e+00 -4.3164616056e+00 2.4921102700e+00 4.3164616056e+00 
60400 4.4970544937e+00 6.3587001820e-05 2.4921102700e+00 -4.3164616056e+00 2.4921102700e+00 4.3164616056e+00 
60500 4.4970544972e+00 6.3496074506e-05 2.4921102700e+00 -4.3164616056e+00 2.4921102700e+00 4.3164616056e+00 
60600 4.4970545007e+00 6.3407035455e-05 2.4921102700e+00 -4.3164616056e+00 2.4921102700e+00 4.3164616056e+00 
60700 4.4970545041e+00 6.3319908344e-05 2.4921102700e+00 -4.3164616056e+00 2.4921102700e+00 4.3164616056e+00 
60800 4.4970545075e+00 6.3234718021e-05 2.4921102700e+00 -4.3164616056e+00 2.4921102700e+00 4.3164616056e+00 
60900 4.4970545108e+00 6.3151489870e-05 2.4921102700e+00 -4.3164616056e+00 2.4921102700e+00 4.3164616056e+00 
61000 4.4970545141e+00 6.3070249215e-05 2.4921102700e+00 -4.3164616056e+00 2.4921102700e+00 4.3164616056e+00 
61100 4.4970545173e+00 6.2991020775e-05 2.4921102700e+00 -4.3164616056e+00 2.4921102700e+00 4.3164616056e+00 
61200 4.4970545205e+00 6.2913828160e-05 2.4921102700e+00 -4.3164616056e+00 2.4921102700e+00 4.3164616056e+00 
61300 4.4970545237e+00 6.2838693396e-05 2.4921102700e+00 -4.3164616056e+00 2.4921102700e+00 4.3164616056e+00 
61400 4.4970545268e+00 6.2765636520e-05 2.4921102700e+00 -4.3164616056e+00 2.4921102700e+00 4.3164616056e+00 
61500 4.4970545299e+00 6.2694675182e-05 2.4921102700e+00 -4.3164616056e+00 2.4921102700e+00 4.3164616056e+00 
61600 4.4970545329e+00 6.2625824330e-05 2.4921102700e+00 -4.3164616056e+00 2.4921102700e+00 4.3164616056e+00 
61700 4.4970545359e+00 6.2559095897e-05 2.4921102700e+00 -4.3164616056e+00 2.4921102700e+00 4.3164616056e+00 
61800 4.4970545388e+00 6.2494498536e-05 2.4921102700e+00 -4.3164616056e+00 2.4921102700e+00 4.3164616056e+00 
61900 4.4970545417e+00 6.2432037424e-05 2.4921102700e+00 -4.3164616056e+00 2.4921102700e+00 4.3164616056e+00 
62000 4.4970545446e+00 6.2371714061e-05 2.4921102700e+00 -4.3164616056e+00 2.4921102700e+00 4.3164616056e+00 
62100 4.4970545474e+00 6.2313526124e-05 2.4921102700e+00 -4.3164616056e+00 2.4921102700e+00 4.3164616056e+00 
62200 4.4970545502e+00 6.2257467365e-05 2.4921102700e+00 -4.3164616056e+00 2.4921102700e+00 4.3164616056e+00 
62300 4.4970545530e+00 6.2203527524e-05 2.4921102700e+00 -4.3164616056e+00 2.4921102700e+00 4.3164616056e+00 
62400 4.4970545557e+00 6.2151692282e-05 2.4921102700e+00 -4.3164616056e+00 2.4921102700e+00 4.3164616056e+00 
62500 4.4970545584e+00 6.2101943247e-05 2.4921102700e+00 -4.3164616056e+00 2.4921102700e+00 4.3164616056e+00 
62600 4.4970545610e+00 6.2054257967e-05 2.4921102700e+00 -4.3164616056e+00 2.4921102700e+00 4.3164616056e+00 
62700 4.4970545636e+00 6.2008609965e-05 2.4921102700e+00 -4.3164616056e+00 2.4921102700e+00 4.3164616056e+00 
62800 4.4970545662e+00 6.1964968800e-05 2.4921102700e+00 -4.3164616056e+00 2.4921102700e+00 4.3164616056e+00 
62900 4.4970545687e+00 6.1923300163e-05 2.4921102700e+00 -4.3164616056e+00 2.4921102700e+00 4.3164616056e+00 
63000 4.4970545712e+00 6.1883565974e-05 2.4921102700e+00 -4.3164616056e+00 2.4921102700e+00 4.3164616056e+00 
63100 4.4970545737e+00 6.1845724527e-05 2.4921102700e+00 -4.3164616056e+00 2.4921102700e+00 4.3164616056e+00 
63200 4.4970545761e+00 6.1809730623e-05 2.4921102700e+00 -4.3164616056e+00 2.4921102700e+00 4.3164616056e+00 
63300 4.4970545785e+00 6.1775535741e-05 2.4921102700e+00 -4.3164616056e+00 2.4921102700e+00 4.3164616056e+00 
63400 4.4970545809e+00 6.1743088216e-05 2.4921102700e+00 -4.3164616056e+00 2.4921102700e+00 4.3164616056e+00 
63500 4.4970545832e+00 6.1712333442e-05 2.4921102700e+00 -4.3164616056e+00 2.4921102700e+00 4.3164616056e+00 
63600 4.4970545855e+00 6.1683214056e-05 2.4921102700e+00 -4.3164616056e+00 2.4921102700e+00 4.3164616056e+00 
63700 4.4970545878e+00 6.1655670174e-05 2.4921102700e+00 -4.3164616056e+00 2.4921102700e+00 4.3164616056e+00 
63800 4.4970545900e+00 6.1629639602e-05 2.4921102700e+00 -4.3164616056e+00 2.4921102700e+00 4.3164616056e+00 
63900 4.4970545922e+00 6.1605058074e-05 2.4921102700e+00 -4.3164616056e+00 2.4921102700e+00 4.3164616056e+00 
64000 4.4970545944e+00 6.1581859486e-05 2.4921102700e+00 -4.3164616056e+00 2.4921102700e+00 4.3164616056e+00 
64100 4.4970545966e+00 6.1559976133e-05 2.4921102700e+00 -4.3164616056e+00 2.4921102700e+00 4.3164616056e+00 
64200 4.4970545987e+00 6.1539338959e-05 2.4921102700e+00 -4.3164616056e+00 2.4921102700e+00 4.3164616056e+00 
64300 4.4970546008e+00 6.1519877794e-05 2.4921102700e+00 -4.3164616056e+00 2.4921102700e+00 4.3164616056e+00 
64400 4.4970546029e+00 6.1501521607e-05 2.4921102700e+00 -4.3164616056e+00 2.4921102700e+00 4.3164616056e+00 
64500 4.4970546049e+00 6.1484198750e-05 2.4921102700e+00 -4.3164616056e+00 2.4921102700e+00 4.3164616056e+00 
64600 4.4970546069e+00 6.1467837190e-05 2.4921102700e+00 -4.3164616056e+00 2.4921102700e+00 4.3164616056e+00 
64700 4.4970546089e+00 6.1452364759e-05 2.4921102700e+00 -4.3164616056e+00 2.4921102700e+00 4.3164616056e+00 
64800 4.4970546109e+00 6.1437709382e-05 2.4921102700e+00 -4.3164616056e+00 2.4921102700e+00 4.3164616056e+00 
64900 4.4970546128e+00 6.1423799310e-05 2.4921102700e+00 -4.3164616056e+00 2.4921102700e+00 4.3164616056e+00 
65000 4.4970546147e+00 6.1410563335e-05 2.4921102700e+00 -4.3164616056e+00 2.4921102700e+00 4.3164616056e+00 
65100 4.4970546166e+00 6.1397931013e-05 2.4921102700e+00 -4.3164616056e+00 2.4921102700e+00 4.3164616056e+00 
65200 4.4970546185e+00 6.1385832871e-05 2.4921102700e+00 -4.3164616056e+00 2.4921102700e+00 4.3164616056e+00 
65300 4.4970546203e+00 6.1374200602e-05 2.4921102700e+00 -4.3164616056e+00 2.4921102700e+00 4.3164616056e+00 
65400 4.4970546221e+00 6.1362967267e-05 2.4921102700e+00 -4.3164616056e+00 2.4921102700e+00 4.3164616056e+00 
65500 4.4970546239e+00 6.1352067460e-05 2.4921102700e+00 -4.3164616056e+00 2.4921102700e+00 4.3164616056e+00 
65600 4.4970546257e+00 6.1341437487e-05 2.4921102700e+00 -4.3164616056e+00 2.4921102700e+00 4.3164616056e+00 
65700 4.4970546274e+00 6.1331015535e-05 2.4921102700e+00 -4.3164616056e+00 2.4921102700e+00 4.3164616056e+00 
65800 4.4970546291e+00 6.1320741796e-05 2.4921102700e+00 -4.3164616056e+00 2.4921102700e+00 4.3164616056e+00 
65900 4.4970546308e+00 6.1310558637e-05 2.4921102700e+00 -4.3164616056e+00 2.4921102700e+00 4.3164616056e+00 
66000 4.4970546325e+00 6.1300410697e-05 2.4921102700e+00 -4.3164616056e+00 2.4921102700e+00 4.3164616056e+00 
66100 4.4970546341e+00 6.1290245023e-05 2.4921102700e+00 -4.3164616056e+00 2.4921102700e+00 4.3164616056e+00 
66200 4.4970546357e+00 6.1280011164e-05 2.4921102700e+00 -4.3164616056e+00 2.4921102700e+00 4.3164616056e+00 
66300 4.4970546373e+00 6.1269661262e-05 2.4921102700e+00 -4.3164616056e+00 2.4921102700e+00 4.3164616056e+00 
66400 4.4970546389e+00 6.1259150134e-05 2.4921102700e+00 -4.3164616056e+00 2.4921102700e+00 4.3164616056e+00 
66500 4.4970546405e+00 6.1248435335e-05 2.4921102700e+00 -4.3164616056e+00 2.4921102700e+00 4.3164616056e+00 
66600 4.4970546420e+00 6.1237477222e-05 2.4921102700e+00 -4.3164616056e+00 2.4921102700e+00 4.3164616056e+00 
66700 4.4970546435e+00 6.1226238992e-05 2.4921102700e+00 -4.3164616056e+00 2.4921102700e+00 4.3164616056e+00 
66800 4.4970546450e+00 6.1214686713e-05 2.4921102700e+00 -4.3164616056e+00 2.4921102700e+00 4.3164616056e+00 
66900 4.4970546465e+00 6.1202789350e-05 2.4921102700e+00 -4.3164616056e+00 2.4921102700e+00 4.3164616056e+00 
67000 4.4970546480e+00 6.1190518779e-05 2.4921102700e+00 -4.3164616056e+00 2.4921102700e+00 4.3164616056e+00 
67100 4.4970546494e+00 6.1177849773e-05 2.4921102700e+00 -4.3164616056e+00 2.4921102700e+00 4.3164616056e+00 
67200 4.4970546508e+00 6.1164760010e-05 2.4921102700e+00 -4.3164616056e+00 2.4921102700e+00 4.3164616056e+00 
67300 4.4970546522e+00 6.1151230040e-05 2.4921102700e+00 -4.3164616056e+00 2.4921102700e+00 4.3164616056e+00 
67400 4.4970546536e+00 6.1137243253e-05 2.4921102700e+00 -4.3164616056e+00 2.4921102700e+00 4.3164616056e+00 
67500 4.4970546550e+00 6.1122785855e-05 2.4921102700e+00 -4.3164616056e+00 2.4921102700e+00 4.3164616056e+00 
67600 4.4970546563e+00 6.1107846803e-05 2.4921102700e+00 -4.3164616056e+00 2.4921102700e+00 4.3164616056e+00 
67700 4.4970546577e+00 6.1092417760e-05 2.4921102700e+00 -4.3164616056e+00 2.4921102700e+00 4.3164616056e+00 
67800 4.4970546590e+00 6.1076493026e-05 2.4921102700e+00 -4.3164616056e+00 2.4921102700e+00 4.3164616056e+00 
67900 4.4970546603e+00 6.1060069469e-05 2.4921102700e+00 -4.3164616056e+00 2.4921102700e+00 4.3164616056e+00 
68000 4.4970546615e+00 6.1043146441e-05 2.4921102700e+00 -4.3164616056e+00 2.4921102700e+00 4.3164616056e+00 
68100 4.4970546628e+00 6.1025725705e-05 2.4921102700e+00 -4.3164616056e+00 2.4921102700e+00 4.3164616056e+00 
68200 4.4970546641e+00 6.1007811331e-05 2.4921102700e+00 -4.3164616056e+00 2.4921102700e+00 4.3164616056e+00 
68300 4.4970546653e+00 6.0989409615e-05 2.4921102700e+00 -4.3164616056e+00 2.4921102700e+00 4.3164616056e+00 
68400 4.4970546665e+00 6.0970528964e-05 2.4921102700e+00 -4.3164616056e+00 2.4921102700e+00 4.3164616056e+00 
68500 4.4970546677e+00 6.0951179802e-05 2.4921102700e+00 -4.3164616056e+00 2.4921102700e+00 4.3164616056e+00 
68600 4.4970546689e+00 6.0931374458e-05 2.4921102700e+00 -4.3164616056e+00 2.4921102700e+00 4.3164616056e+00 
68700 4.4970546700e+00 6.0911127049e-05 2.4921102700e+00 -4.3164616056e+00 2.4921102700e+00 4.3164616056e+00 
68800 4.4970546712e+00 6.0890453376e-05 2.4921102700e+00 -4.3164616056e+00 2.4921102700e+00 4.3164616056e+00 
68900 4.4970546723e+00 6.0869370803e-05 2.4921102700e+00 -4.3164616056e+00 2.4921102700e+00 4.3164616056e+00 
69000 4.4970546734e+00 6.0847898137e-05 2.4921102700e+00 -4.3164616056e+00 2.4921102700e+00 4.3164616056e+00 
69100 4.4970546745e+00 6.0826055507e-05 2.4921102700e+00 -4.3164616056e+00 2.4921102700e+00 4.3164616056e+00 
69200 4.4970546756e+00 6.0803864256e-05 2.4921102700e+00 -4.3164616056e+00 2.4921102700e+00 4.3164616056e+00 
69300 4.4970546767e+00 6.0781346802e-05 2.4921102700e+00 -4.3164616056e+00 2.4921102700e+00 4.3164616056e+00 
69400 4.4970546778e+00 6.0758526534e-05 2.4921102700e+00 -4.3164616056e+00 2.4921102700e+00 4.3164616056e+00 
69500 4.4970546788e+00 6.0735427686e-05 2.4921102700e+00 -4.3164616056e+00 2.4921102700e+00 4.3164616056e+00 
69600 4.4970546798e+00 6.0712075217e-05 2.4921102700e+00 -4.3164616056e+00 2.4921102700e+00 4.3164616056e+00 
69700 4.4970546809e+00 6.0688494700e-05 2.4921102700e+00 -4.3164616056e+00 2.4921102700e+00 4.3164616056e+00 
69800 4.4970546819e+00 6.0664712197e-05 2.4921102700e+00 -4.3164616056e+00 2.4921102700e+00 4.3164616056e+00 
69900 4.4970546829e+00 6.0640754158e-05 2.4921102700e+00 -4.3164616056e+00 2.4921102700e+00 4.3164616056e+00 
70000 4.4970546838e+00 6.0616647304e-05 2.4921102700e+00 -4.3164616056e+00 2.4921102700e+00 4.3164616056e+00 
70100 4.4970546848e+00 6.0592418515e-05 2.4921102700e+00 -4.3164616056e+00 2.4921102700e+00 4.3164616056e+00 
70200 4.4970546858e+00 6.0568094740e-05 2.4921102700e+00 -4.3164616056e+00 2.4921102700e+00 4.3164616056e+00 
70300 4.4970546867e+00 6.0543702877e-05 2.4921102700e+00 -4.3164616056e+00 2.4921102700e+00 4.3164616056e+00 
70400 4.4970546876e+00 6.0519269687e-05 2.4921102700e+00 -4.3164616056e+00 2.4921102700e+00 4.3164616056e+00 
70500 4.4970546886e+00 6.0494821705e-05 2.4921102700e+00 -4.3164616056e+00 2.4921102700e+00 4.3164616056e+00 
70600 4.4970546895e+00 6.0470385136e-05 2.4921102700e+00 -4.3164616056e+00 2.4921102700e+00 4.3164616056e+00 
70700 4.4970546904e+00 6.0445985784e-05 2.4921102700e+00 -4.3164616056e+00 2.4921102700e+00 4.3164616056e+00 
70800 4.4970546913e+00 6.0421648958e-05 2.4921102700e+00 -4.3164616056e+00 2.4921102700e+00 4.3164616056e+00 
70900 4.4970546921e+00 6.0397399412e-05 2.4921102700e+00 -4.3164616056e+00 2.4921102700e+00 4.3164616056e+00 
71000 4.4970546930e+00 6.0373261258e-05 2.4921102700e+00 -4.3164616056e+00 2.4921102700e+00 4.3164616056e+00 
71100 4.4970546938e+00 6.0349257904e-05 2.4921102700e+00 -4.3164616056e+00 2.4921102700e+00 4.3164616056e+00 
71200 4.4970546947e+00 6.0325411998e-05 2.4921102700e+00 -4.3164616056e+00 2.4921102700e+00 4.3164616056e+00 
71300 4.4970546955e+00 6.0301745367e-05 2.4921102700e+00 -4.3164616056e+00 2.4921102700e+00 4.3164616056e+00 
71400 4.4970546963e+00 6.0278278958e-05 2.4921102700e+00 -4.3164616056e+00 2.4921102700e+00 4.3164616056e+00 
71500 4.4970546971e+00 6.0255032804e-05 2.4921102700e+00 -4.3164616056e+00 2.4921102700e+00 4.3164616056e+00 
71600 4.4970546979e+00 6.0232025970e-05 2.4921102700e+00 -4.3164616056e+00 2.4921102700e+00 4.3164616056e+00 
71700 4.4970546987e+00 6.0209276525e-05 2.4921102700e+00 -4.3164616056e+00 2.4921102700e+00 4.3164616056e+00 
71800 4.4970546995e+00 6.0186801505e-05 2.4921102700e+00 -4.3164616056e+00 2.4921102700e+00 4.3164616056e+00 
71900 4.4970547002e+00 6.0164616884e-05 2.4921102700e+00 -4.3164616056e+00 2.4921102700e+00 4.3164616056e+00 
72000 4.4970547010e+00 6.0142737558e-05 2.4921102700e+00 -4.3164616056e+00 2.4921102700e+00 4.3164616056e+00 
72100 4.4970547017e+00 6.0121177318e-05 2.4921102700e+00 -4.3164616056e+00 2.4921102700e+00 4.3164616056e+00 
72200 4.4970547025e+00 6.0099948843e-05 2.4921102700e+00 -4.3164616056e+00 2.4921102700e+00 4.3164616056e+00 
72300 4.4970547032e+00 6.0079063693e-05 2.4921102700e+00 -4.3164616056e+00 2.4921102700e+00 4.3164616056e+00 
72400 4.4970547039e+00 6.0058532294e-05 2.4921102700e+00 -4.3164616056e+00 2.4921102700e+00 4.3164616056e+00 
72500 4.4970547046e+00 6.0038363949e-05 2.4921102700e+00 -4.3164616056e+00 2.4921102700e+00 4.3164616056e+00 
72600 4.4970547053e+00 6.0018566835e-05 2.4921102700e+00 -4.3164616056e+00 2.4921102700e+00 4.3164616056e+00 
72700 4.4970547060e+00 5.9999148014e-05 2.4921102700e+00 -4.3164616056e+00 2.4921102700e+00 4.3164616056e+00 
72800 4.4970547067e+00 5.9980113444e-05 2.4921102700e+00 -4.3164616056e+00 2.4921102700e+00 4.3164616056e+00 
72900 4.4970547074e+00 5.9961467989e-05 2.4921102700e+00 -4.3164616056e+00 2.4921102700e+00 4.3164616056e+00 
73000 4.4970547080e+00 5.9943215444e-05 2.4921102700e+00 -4.3164616056e+00 2.4921102700e+00 4.3164616056e+00 
73100 4.4970547087e+00 5.9925358554e-05 2.4921102700e+00 -4.3164616056e+00 2.4921102700e+00 4.3164616056e+00 
73200 4.4970547093e+00 5.9907899039e-05 2.4921102700e+00 -4.3164616056e+00 2.4921102700e+00 4.3164616056e+00 
73300 4.4970547100e+00 5.9890837619e-05 2.4921102700e+00 -4.3164616056e+00 2.4921102700e+00 4.3164616056e+00 
73400 4.4970547106e+00 5.9874174043e-05 2.4921102700e+00 -4.3164616056e+00 2.4921102700e+00 4.3164616056e+00 
73500 4.4970547112e+00 5.9857907129e-05 2.4921102700e+00 -4.3164616056e+00 2.4921102700e+00 4.3164616056e+00 
73600 4.4970547118e+00 5.9842034788e-05 2.4921102700e+00 -4.3164616056e+00 2.4921102700e+00 4.3164616056e+00 
73700 4.4970547124e+00 5.9826554070e-05 2.4921102700e+00 -4.3164616056e+00 2.4921102700e+00 4.3164616056e+00 
73800 4.4970547130e+00 5.9811461195e-05 2.4921102700e+00 -4.3164616056e+00 2.4921102700e+00 4.3164616056e+00 
73900 4.4970547136e+00 5.9796751595e-05 2.4921102700e+00 -4.3164616056e+00 2.4921102700e+00 4.3164616056e+00 
74000 4.4970547142e+00 5.9782419965e-05 2.4921102700e+00 -4.3164616056e+00 2.4921102700e+00 4.3164616056e+00 
74100 4.4970547148e+00 5.9768460283e-05 2.4921102700e+00 -4.3164616056e+00 2.4921102700e+00 4.3164616056e+00 
74200 4.4970547153e+00 5.9754865881e-05 2.4921102700e+00 -4.3164616056e+00 2.4921102700e+00 4.3164616056e+00 
74300 4.4970547159e+00 5.9741629463e-05 2.4921102700e+00 -4.3164616056e+00 2.4921102700e+00 4.3164616056e+00 
74400 4.4970547165e+00 5.9728743172e-05 2.4921102700e+00 -4.3164616056e+00 2.4921102700e+00 4.3164616056e+00 
74500 4.4970547170e+00 5.9716198621e-05 2.4921102700e+00 -4.3164616056e+00 2.4921102700e+00 4.3164616056e+00 
74600 4.4970547175e+00 5.9703986945e-05 2.4921102700e+00 -4.3164616056e+00 2.4921102700e+00 4.3164616056e+00 
74700 4.4970547181e+00 5.9692098842e-05 2.4921102700e+00 -4.3164616056e+00 2.4921102700e+00 4.3164616056e+00 
74800 4.4970547186e+00 5.9680524627e-05 2.4921102700e+00 -4.3164616056e+00 2.4921102700e+00 4.3164616056e+00 
74900 4.4970547191e+00 5.9669254266e-05 2.4921102700e+00 -4.3164616056e+00 2.4921102700e+00 4.3164616056e+00 
75000 4.4970547196e+00 5.9658277431e-05 2.4921102700e+00 -4.3164616056e+00 2.4921102700e+00 4.3164616056e+00 
75100 4.4970547201e+00 5.9647583539e-05 2.4921102700e+00 -4.3164616056e+00 2.4921102700e+00 4.3164616056e+00 
75200 4.4970547206e+00 5.9637161795e-05 2.4921102700e+00 -4.3164616056e+00 2.4921102700e+00 4.3164616056e+00 
75300 4.4970547211e+00 5.9627001237e-05 2.4921102700e+00 -4.3164616056e+00 2.4921102700e+00 4.3164616056e+00 
75400 4.4970547216e+00 5.9617090780e-05 2.4921102700e+00 -4.3164616056e+00 2.4921102700e+00 4.3164616056e+00 
75500 4.4970547221e+00 5.9607419251e-05 2.4921102700e+00 -4.3164616056e+00 2.4921102700e+00 4.3164616056e+00 
75600 4.4970547226e+00 5.9597975434e-05 2.4921102700e+00 -4.3164616056e+00 2.4921102700e+00 4.3164616056e+00 
75700 4.4970547230e+00 5.9588748104e-05 2.4921102700e+00 -4.3164616056e+00 2.4921102700e+00 4.3164616056e+00 
75800 4.4970547235e+00 5.9579726064e-05 2.4921102700e+00 -4.3164616056e+00 2.4921102700e+00 4.3164616056e+00 
75900 4.4970547239e+00 5.9570898190e-05 2.4921102700e+00 -4.3164616056e+00 2.4921102700e+00 4.3164616056e+00 
76000 4.4970547244e+00 5.9562253449e-05 2.4921102700e+00 -4.3164616056e+00 2.4921102700e+00 4.3164616056e+00 
76100 4.4970547248e+00 5.9553780947e-05 2.4921102700e+00 -4.3164616056e+00 2.4921102700e+00 4.3164616056e+00 
76200 4.4970547253e+00 5.9545469948e-05 2.4921102700e+00 -4.3164616056e+00 2.4921102700e+00 4.3164616056e+00 
76300 4.4970547257e+00 5.9537309908e-05 2.4921102700e+00 -4.3164616056e+00 2.4921102700e+00 4.3164616056e+00 
76400 4.4970547261e+00 5.9529290501e-05 2.4921102700e+00 -4.3164616056e+00 2.4921102700e+00 4.3164616056e+00 
76500 4.4970547266e+00 5.9521401650e-05 2.4921102700e+00 -4.3164616056e+00 2.4921102700e+00 4.3164616056e+00 
76600 4.4970547270e+00 5.9513633538e-05 2.4921102700e+00 -4.3164616056e+00 2.4921102700e+00 4.3164616056e+00 
76700 4.4970547274e+00 5.9505976643e-05 2.4921102700e+00 -4.3164616056e+00 2.4921102700e+00 4.3164616056e+00 
76800 4.4970547278e+00 5.9498421756e-05 2.4921102700e+00 -4.3164616056e+00 2.4921102700e+00 4.3164616056e+00 
76900 4.4970547282e+00 5.9490959990e-05 2.4921102700e+00 -4.3164616056e+00 2.4921102700e+00 4.3164616056e+00 
77000 4.4970547286e+00 5.9483582802e-05 2.4921102700e+00 -4.3164616056e+00 2.4921102700e+00 4.3164616056e+00 
77100 4.4970547290e+00 5.9476282011e-05 2.4921102700e+00 -4.3164616056e+00 2.4921102700e+00 4.3164616056e+00 
77200 4.4970547294e+00 5.9469049802e-05 2.4921102700e+00 -4.3164616056e+00 2.4921102700e+00 4.3164616056e+00 
77300 4.4970547297e+00 5.9461878753e-05 2.4921102700e+00 -4.3164616056e+00 2.4921102700e+00 4.3164616056e+00 
77400 4.4970547301e+00 5.9454761822e-05 2.4921102700e+00 -4.3164616056e+00 2.4921102700e+00 4.3164616056e+00 
77500 4.4970547305e+00 5.9447692366e-05 2.4921102700e+00 -4.3164616056e+00 2.4921102700e+00 4.3164616056e+00 
77600 4.4970547309e+00 5.9440664155e-05 2.4921102700e+00 -4.3164616056e+00 2.4921102700e+00 4.3164616056e+00 
77700 4.4970547312e+00 5.9433671357e-05 2.4921102700e+00 -4.3164616056e+00 2.4921102700e+00 4.3164616056e+00 
77800 4.4970547316e+00 5.9426708558e-05 2.4921102700e+00 -4.3164616056e+00 2.4921102700e+00 4.3164616056e+00 
77900 4.4970547319e+00 5.9419770752e-05 2.4921102700e+00 -4.3164616056e+00 2.4921102700e+00 4.3164616056e+00 
78000 4.4970547323e+00 5.9412853342e-05 2.4921102700e+00 -4.3164616056e+00 2.4921102700e+00 4.3164616056e+00 
78100 4.4970547326e+00 5.9405952146e-05 2.4921102700e+00 -4.3164616056e+00 2.4921102700e+00 4.3164616056e+00 
78200 4.4970547330e+00 5.9399063377e-05 2.4921102700e+00 -4.3164616056e+00 2.4921102700e+00 4.3164616056e+00 
78300 4.4970547333e+00 5.9392183658e-05 2.4921102700e+00 -4.3164616056e+00 2.4921102700e+00 4.3164616056e+00 
78400 4.4970547336e+00 5.9385309999e-05 2.4921102700e+00 -4.3164616056e+00 2.4921102700e+00 4.3164616056e+00 
78500 4.4970547340e+00 5.9378439800e-05 2.4921102700e+00 -4.3164616056e+00 2.4921102700e+00 4.3164616056e+00 
78600 4.4970547343e+00 5.9371570843e-05 2.4921102700e+00 -4.3164616056e+00 2.4921102700e+00 4.3164616056e+00 
78700 4.4970547346e+00 5.9364701267e-05 2.4921102700e+00 -4.3164616056e+00 2.4921102700e+00 4.3164616056e+00 
78800 4.4970547349e+00 5.9357829583e-05 2.4921102700e+00 -4.3164616056e+00 2.4921102700e+00 4.3164616056e+00 
78900 4.4970547352e+00 5.9350954642e-05 2.4921102700e+00 -4.3164616056e+00 2.4921102700e+00 4.3164616056e+00 
79000 4.4970547355e+00 5.9344075632e-05 2.4921102700e+00 -4.3164616056e+00 2.4921102700e+00 4.3164616056e+00 
79100 4.4970547358e+00 5.9337192064e-05 2.4921102700e+00 -4.3164616056e+00 2.4921102700e+00 4.3164616056e+00 
79200 4.4970547361e+00 5.9330303759e-05 2.4921102700e+00 -4.3164616056e+00 2.4921102700e+00 4.3164616056e+00 
79300 4.4970547364e+00 5.9323410829e-05 2.4921102700e+00 -4.3164616056e+00 2.4921102700e+00 4.3164616056e+00 
79400 4.4970547367e+00 5.9316513667e-05 2.4921102700e+00 -4.3164616056e+00 2.4921102700e+00 4.3164616056e+00 
79500 4.4970547370e+00 5.9309612935e-05 2.4921102700e+00 -4.3164616056e+00 2.4921102700e+00 4.3164616056e+00 
79600 4.4970547373e+00 5.9302709540e-05 2.4921102700e+00 -4.3164616056e+00 2.4921102700e+00 4.3164616056e+00 
79700 4.4970547376e+00 5.9295804628e-05 2.4921102700e+00 -4.3164616056e+00 2.4921102700e+00 4.3164616056e+00 
79800 4.4970547378e+00 5.9288899555e-05 2.4921102700e+00 -4.3164616056e+00 2.4921102700e+00 4.3164616056e+00 
79900 4.4970547381e+00 5.9281995888e-05 2.4921102700e+00 -4.3164616056e+00 2.4921102700e+00 4.3164616056e+00 
80000 4.4970547384e+00 5.9275095373e-05 2.4921102700e+00 -4.3164616056e+00 2.4921102700e+00 4.3164616056e+00 
80100 4.4970547387e+00 5.9268199931e-05 2.4921102700e+00 -4.3164616056e+00 2.4921102700e+00 4.3164616056e+00 
80200 4.4970547389e+00 5.9261311629e-05 2.4921102700e+00 -4.3164616056e+00 2.4921102700e+00 4.3164616056e+00 
80300 4.4970547392e+00 5.9254432677e-05 2.4921102700e+00 -4.3164616056e+00 2.4921102700e+00 4.3164616056e+00 
80400 4.4970547394e+00 5.9247565401e-05 2.4921102700e+00 -4.3164616056e+00 2.4921102700e+00 4.3164616056e+00 
80500 4.4970547397e+00 5.9240712235e-05 2.4921102700e+00 -4.3164616056e+00 2.4921102700e+00 4.3164616056e+00 
80600 4.4970547399e+00 5.9233875704e-05 2.4921102700e+00 -4.3164616056e+00 2.4921102700e+00 4.3164616056e+00 
80700 4.4970547402e+00 5.9227058401e-05 2.4921102700e+00 -4.3164616056e+00 2.4921102700e+00 4.3164616056e+00 
80800 4.4970547404e+00 5.9220262984e-05 2.4921102700e+00 -4.3164616056e+00 2.4921102700e+00 4.3164616056e+00 
80900 4.4970547407e+00 5.9213492152e-05 2.4921102700e+00 -4.3164616056e+00 2.4921102700e+00 4.3164616056e+00 
81000 4.4970547409e+00 5.9206748636e-05 2.4921102700e+00 -4.3164616056e+00 2.4921102700e+00 4.3164616056e+00 
81100 4.4970547411e+00 5.9200035181e-05 2.4921102700e+00 -4.3164616056e+00 2.4921102700e+00 4.3164616056e+00 
81200 4.4970547414e+00 5.9193354541e-05 2.4921102700e+00 -4.3164616056e+00 2.4921102700e+00 4.3164616056e+00 
81300 4.4970547416e+00 5.9186709455e-05 2.4921102700e+00 -4.3164616056e+00 2.4921102700e+00 4.3164616056e+00 
81400 4.4970547418e+00 5.9180102640e-05 2.4921102700e+00 -4.3164616056e+00 2.4921102700e+00 4.3164616056e+00 
81500 4.4970547421e+00 5.9173536784e-05 2.4921102700e+00 -4.3164616056e+00 2.4921102700e+00 4.3164616056e+00 
81600 4.4970547423e+00 5.9167014530e-05 2.4921102700e+00 -4.3164616056e+00 2.4921102700e+00 4.3164616056e+00 
81700 4.4970547425e+00 5.9160538462e-05 2.4921102700e+00 -4.3164616056e+00 2.4921102700e+00 4.3164616056e+00 
81800 4.4970547427e+00 5.9154111107e-05 2.4921102700e+00 -4.3164616056e+00 2.4921102700e+00 4.3164616056e+00 
81900 4.4970547429e+00 5.9147734909e-05 2.4921102700e+00 -4.3164616056e+00 2.4921102700e+00 4.3164616056e+00 
82000 4.4970547431e+00 5.9141412240e-05 2.4921102700e+00 -4.3164616056e+00 2.4921102700e+00 4.3164616056e+00 
82100 4.4970547433e+00 5.9135145372e-05 2.4921102700e+00 -4.3164616056e+00 2.4921102700e+00 4.3164616056e+00 
82200 4.4970547435e+00 5.9128936487e-05 2.4921102700e+00 -4.3164616056e+00 2.4921102700e+00 4.3164616056e+00 
82300 4.4970547437e+00 5.9122787659e-05 2.4921102700e+00 -4.3164616056e+00 2.4921102700e+00 4.3164616056e+00 
82400 4.4970547439e+00 5.9116700859e-05 2.4921102700e+00 -4.3164616056e+00 2.4921102700e+00 4.3164616056e+00 
82500 4.4970547441e+00 5.9110677937e-05 2.4921102700e+00 -4.3164616056e+00 2.4921102700e+00 4.3164616056e+00 
82600 4.4970547443e+00 5.9104720628e-05 2.4921102700e+00 -4.3164616056e+00 2.4921102700e+00 4.3164616056e+00 
82700 4.4970547445e+00 5.9098830534e-05 2.4921102700e+00 -4.3164616056e+00 2.4921102700e+00 4.3164616056e+00 
82800 4.4970547447e+00 5.9093009145e-05 2.4921102700e+00 -4.3164616056e+00 2.4921102700e+00 4.3164616056e+00 
82900 4.4970547449e+00 5.9087257809e-05 2.4921102700e+00 -4.3164616056e+00 2.4921102700e+00 4.3164616056e+00 
83000 4.4970547451e+00 5.9081577752e-05 2.4921102700e+00 -4.3164616056e+00 2.4921102700e+00 4.3164616056e+00 
83100 4.4970547453e+00 5.9075970062e-05 2.4921102700e+00 -4.3164616056e+00 2.4921102700e+00 4.3164616056e+00 
83200 4.4970547455e+00 5.9070435693e-05 2.4921102700e+00 -4.3164616056e+00 2.4921102700e+00 4.3164616056e+00 
83300 4.4970547456e+00 5.9064975467e-05 2.4921102700e+00 -4.3164616056e+00 2.4921102700e+00 4.3164616056e+00 
83400 4.4970547458e+00 5.9059590072e-05 2.4921102700e+00 -4.3164616056e+00 2.4921102700e+00 4.3164616056e+00 
83500 4.4970547460e+00 5.9054280059e-05 2.4921102700e+00 -4.3164616056e+00 2.4921102700e+00 4.3164616056e+00 
83600 4.4970547462e+00 5.9049045856e-05 2.4921102700e+00 -4.3164616056e+00 2.4921102700e+00 4.3164616056e+00 
83700 4.4970547463e+00 5.9043887747e-05 2.4921102700e+00 -4.3164616056e+00 2.4921102700e+00 4.3164616056e+00 
83800 4.4970547465e+00 5.9038805899e-05 2.4921102700e+00 -4.3164616056e+00 2.4921102700e+00 4.3164616056e+00 
83900 4.4970547467e+00 5.9033800352e-05 2.4921102700e+00 -4.3164616056e+00 2.4921102700e+00 4.3164616056e+00 
84000 4.4970547468e+00 5.9028871014e-05 2.4921102700e+00 -4.3164616056e+00 2.4921102700e+00 4.3164616056e+00 
84100 4.4970547470e+00 5.9024017688e-05 2.4921102700e+00 -4.3164616056e+00 2.4921102700e+00 4.3164616056e+00 
84200 4.4970547471e+00 5.9019240044e-05 2.4921102700e+00 -4.3164616056e+00 2.4921102700e+00 4.3164616056e+00 
84300 4.4970547473e+00 5.9014537654e-05 2.4921102700e+00 -4.3164616056e+00 2.4921102700e+00 4.3164616056e+00 
84400 4.4970547475e+00 5.9009909973e-05 2.4921102700e+00 -4.3164616056e+00 2.4921102700e+00 4.3164616056e+00 
84500 4.4970547476e+00 5.9005356361e-05 2.4921102700e+00 -4.3164616056e+00 2.4921102700e+00 4.3164616056e+00 
84600 4.4970547478e+00 5.9000876071e-05 2.4921102700e+00 -4.3164616056e+00 2.4921102700e+00 4.3164616056e+00 
84700 4.4970547479e+00 5.8996468266e-05 2.4921102700e+00 -4.3164616056e+00 2.4921102700e+00 4.3164616056e+00 
84800 4.4970547481e+00 5.8992132021e-05 2.4921102700e+00 -4.3164616056e+00 2.4921102700e+00 4.3164616056e+00 
84900 4.4970547482e+00 5.8987866327e-05 2.4921102700e+00 -4.3164616056e+00 2.4921102700e+00 4.3164616056e+00 
85000 4.4970547483e+00 5.8983670095e-05 2.4921102700e+00 -4.3164616056e+00 2.4921102700e+00 4.3164616056e+00 
85100 4.4970547485e+00 5.8979542167e-05 2.4921102700e+00 -4.3164616056e+00 2.4921102700e+00 4.3164616056e+00 
85200 4.4970547486e+00 5.8975481314e-05 2.4921102700e+00 -4.3164616056e+00 2.4921102700e+00 4.3164616056e+00 
85300 4.4970547488e+00 5.8971486252e-05 2.4921102700e+00 -4.3164616056e+00 2.4921102700e+00 4.3164616056e+00 
85400 4.4970547489e+00 5.8967555634e-05 2.4921102700e+00 -4.3164616056e+00 2.4921102700e+00 4.3164616056e+00 
85500 4.4970547490e+00 5.8963688065e-05 2.4921102700e+00 -4.3164616056e+00 2.4921102700e+00 4.3164616056e+00 
85600 4.4970547492e+00 5.8959882110e-05 2.4921102700e+00 -4.3164616056e+00 2.4921102700e+00 4.3164616056e+00 
85700 4.4970547493e+00 5.8956136291e-05 2.4921102700e+00 -4.3164616056e+00 2.4921102700e+00 4.3164616056e+00 
85800 4.4970547494e+00 5.8952449098e-05 2.4921102700e+00 -4.3164616056e+00 2.4921102700e+00 4.3164616056e+00 
85900 4.4970547496e+00 5.8948818991e-05 2.4921102700e+00 -4.3164616056e+00 2.4921102700e+00 4.3164616056e+00 
86000 4.4970547497e+00 5.8945244415e-05 2.4921102700e+00 -4.3164616056e+00 2.4921102700e+00 4.3164616056e+00 
86100 4.4970547498e+00 5.8941723790e-05 2.4921102700e+00 -4.3164616056e+00 2.4921102700e+00 4.3164616056e+00 
86200 4.4970547499e+00 5.8938255529e-05 2.4921102700e+00 -4.3164616056e+00 2.4921102700e+00 4.3164616056e+00 
86300 4.4970547501e+00 5.8934838038e-05 2.4921102700e+00 -4.3164616056e+00 2.4921102700e+00 4.3164616056e+00 
86400 4.4970547502e+00 5.8931469719e-05 2.4921102700e+00 -4.3164616056e+00 2.4921102700e+00 4.3164616056e+00 
86500 4.4970547503e+00 5.8928148979e-05 2.4921102700e+00 -4.3164616056e+00 2.4921102700e+00 4.3164616056e+00 
86600 4.4970547504e+00 5.8924874232e-05 2.4921102700e+00 -4.3164616056e+00 2.4921102700e+00 4.3164616056e+00 
86700 4.4970547505e+00 5.8921643905e-05 2.4921102700e+00 -4.3164616056e+00 2.4921102700e+00 4.3164616056e+00 
86800 4.4970547507e+00 5.8918456439e-05 2.4921102700e+00 -4.3164616056e+00 2.4921102700e+00 4.3164616056e+00 
86900 4.4970547508e+00 5.8915310294e-05 2.4921102700e+00 -4.3164616056e+00 2.4921102700e+00 4.3164616056e+00 
87000 4.4970547509e+00 5.8912203956e-05 2.4921102700e+00 -4.3164616056e+00 2.4921102700e+00 4.3164616056e+00 
87100 4.4970547510e+00 5.8909135941e-05 2.4921102700e+00 -4.3164616056e+00 2.4921102700e+00 4.3164616056e+00 
87200 4.4970547511e+00 5.8906104792e-05 2.4921102700e+00 -4.3164616056e+00 2.4921102700e+00 4.3164616056e+00 
87300 4.4970547512e+00 5.8903109090e-05 2.4921102700e+00 -4.3164616056e+00 2.4921102700e+00 4.3164616056e+00 
87400 4.4970547513e+00 5.8900147443e-05 2.4921102700e+00 -4.3164616056e+00 2.4921102700e+00 4.3164616056e+00 
87500 4.4970547514e+00 5.8897218508e-05 2.4921102700e+00 -4.3164616056e+00 2.4921102700e+00 4.3164616056e+00 
87600 4.4970547515e+00 5.8894320983e-05 2.4921102700e+00 -4.3164616056e+00 2.4921102700e+00 4.3164616056e+00 
87700 4.4970547516e+00 5.8891453602e-05 2.4921102700e+00 -4.3164616056e+00 2.4921102700e+00 4.3164616056e+00 
87800 4.4970547517e+00 5.8888615155e-05 2.4921102700e+00 -4.3164616056e+00 2.4921102700e+00 4.3164616056e+00 
87900 4.4970547518e+00 5.8885804473e-05 2.4921102700e+00 -4.3164616056e+00 2.4921102700e+00 4.3164616056e+00 
88000 4.4970547519e+00 5.8883020435e-05 2.4921102700e+00 -4.3164616056e+00 2.4921102700e+00 4.3164616056e+00 
88100 4.4970547520e+00 5.8880261975e-05 2.4921102700e+00 -4.3164616056e+00 2.4921102700e+00 4.3164616056e+00 
88200 4.4970547521e+00 5.8877528075e-05 2.4921102700e+00 -4.3164616056e+00 2.4921102700e+00 4.3164616056e+00 
88300 4.4970547522e+00 5.8874817771e-05 2.4921102700e+00 -4.3164616056e+00 2.4921102700e+00 4.3164616056e+00 
88400 4.4970547523e+00 5.8872130150e-05 2.4921102700e+00 -4.3164616056e+00 2.4921102700e+00 4.3164616056e+00 
88500 4.4970547524e+00 5.8869464353e-05 2.4921102700e+00 -4.3164616056e+00 2.4921102700e+00 4.3164616056e+00 
88600 4.4970547525e+00 5.8866819572e-05 2.4921102700e+00 -4.3164616056e+00 2.4921102700e+00 4.3164616056e+00 
88700 4.4970547526e+00 5.8864195053e-05 2.4921102700e+00 -4.3164616056e+00 2.4921102700e+00 4.3164616056e+00 
88800 4.4970547527e+00 5.8861590096e-05 2.4921102700e+00 -4.3164616056e+00 2.4921102700e+00 4.3164616056e+00 
88900 4.4970547528e+00 5.8859004055e-05 2.4921102700e+00 -4.3164616056e+00 2.4921102700e+00 4.3164616056e+00 
89000 4.4970547529e+00 5.8856436333e-05 2.4921102700e+00 -4.3164616056e+00 2.4921102700e+00 4.3164616056e+00 
89100 4.4970547529e+00 5.8853886383e-05 2.4921102700e+00 -4.3164616056e+00 2.4921102700e+00 4.3164616056e+00 
89200 4.4970547530e+00 5.8851353713e-05 2.4921102700e+00 -4.3164616056e+00 2.4921102700e+00 4.3164616056e+00 
89300 4.4970547531e+00 5.8848837880e-05 2.4921102700e+00 -4.3164616056e+00 2.4921102700e+00 4.3164616056e+00 
89400 4.4970547532e+00 5.8846338483e-05 2.4921102700e+00 -4.3164616056e+00 2.4921102700e+00 4.3164616056e+00 
89500 4.4970547533e+00 5.8843855173e-05 2.4921102700e+00 -4.3164616056e+00 2.4921102700e+00 4.3164616056e+00 
89600 4.4970547534e+00 5.8841387646e-05 2.4921102700e+00 -4.3164616056e+00 2.4921102700e+00 4.3164616056e+00 
89700 4.4970547534e+00 5.8838935641e-05 2.4921102700e+00 -4.3164616056e+00 2.4921102700e+00 4.3164616056e+00 
89800 4.4970547535e+00 5.8836498938e-05 2.4921102700e+00 -4.3164616056e+00 2.4921102700e+00 4.3164616056e+00 
89900 4.4970547536e+00 5.8834077363e-05 2.4921102700e+00 -4.3164616056e+00 2.4921102700e+00 4.3164616056e+00 
90000 4.4970547537e+00 5.8831670775e-05 2.4921102700e+00 -4.3164616056e+00 2.4921102700e+00 4.3164616056e+00 
90100 4.4970547538e+00 5.8829279071e-05 2.4921102700e+00 -4.3164616056e+00 2.4921102700e+00 4.3164616056e+00 
90200 4.4970547538e+00 5.8826902183e-05 2.4921102700e+00 -4.3164616056e+00 2.4921102700e+00 4.3164616056e+00 
90300 4.4970547539e+00 5.8824540082e-05 2.4921102700e+00 -4.3164616056e+00 2.4921102700e+00 4.3164616056e+00 
90400 4.4970547540e+00 5.8822192764e-05 2.4921102700e+00 -4.3164616056e+00 2.4921102700e+00 4.3164616056e+00 
90500 4.4970547541e+00 5.8819860253e-05 2.4921102700e+00 -4.3164616056e+00 2.4921102700e+00 4.3164616056e+00 
90600 4.4970547541e+00 5.8817542607e-05 2.4921102700e+00 -4.3164616056e+00 2.4921102700e+00 4.3164616056e+00 
90700 4.4970547542e+00 5.8815239899e-05 2.4921102700e+00 -4.3164616056e+00 2.4921102700e+00 4.3164616056e+00 
90800 4.4970547543e+00 5.8812952235e-05 2.4921102700e+00 -4.3164616056e+00 2.4921102700e+00 4.3164616056e+00 
90900 4.4970547543e+00 5.8810679735e-05 2.4921102700e+00 -4.3164616056e+00 2.4921102700e+00 4.3164616056e+00 
91000 4.4970547544e+00 5.8808422542e-05 2.4921102700e+00 -4.3164616056e+00 2.4921102700e+00 4.3164616056e+00 
91100 4.4970547545e+00 5.8806180810e-05 2.4921102700e+00 -4.3164616056e+00 2.4921102700e+00 4.3164616056e+00 
91200 4.4970547545e+00 5.8803954716e-05 2.4921102700e+00 -4.3164616056e+00 2.4921102700e+00 4.3164616056e+00 
91300 4.4970547546e+00 5.8801744440e-05 2.4921102700e+00 -4.3164616056e+00 2.4921102700e+00 4.3164616056e+00 
91400 4.4970547547e+00 5.8799550178e-05 2.4921102700e+00 -4.3164616056e+00 2.4921102700e+00 4.3164616056e+00 
91500 4.4970547547e+00 5.8797372139e-05 2.4921102700e+00 -4.3164616056e+00 2.4921102700e+00 4.3164616056e+00 
91600 4.4970547548e+00 5.8795210528e-05 2.4921102700e+00 -4.3164616056e+00 2.4921102700e+00 4.3164616056e+00 
91700 4.4970547549e+00 5.8793065566e-05 2.4921102700e+00 -4.3164616056e+00 2.4921102700e+00 4.3164616056e+00 
91800 4.4970547549e+00 5.8790937467e-05 2.4921102700e+00 -4.3164616056e+00 2.4921102700e+00 4.3164616056e+00 
91900 4.4970547550e+00 5.8788826453e-05 2.4921102700e+00 -4.3164616056e+00 2.4921102700e+00 4.3164616056e+00 
92000 4.4970547551e+00 5.8786732750e-05 2.4921102700e+00 -4.3164616056e+00 2.4921102700e+00 4.3164616056e+00 
92100 4.4970547551e+00 5.8784656572e-05 2.4921102700e+00 -4.3164616056e+00 2.4921102700e+00 4.3164616056e+00 
92200 4.4970547552e+00 5.8782598131e-05 2.4921102700e+00 -4.3164616056e+00 2.4921102700e+00 4.3164616056e+00 
92300 4.4970547552e+00 5.8780557646e-05 2.4921102700e+00 -4.3164616056e+00 2.4921102700e+00 4.3164616056e+00 
92400 4.4970547553e+00 5.8778535317e-05 2.4921102700e+00 -4.3164616056e+00 2.4921102700e+00 4.3164616056e+00 
92500 4.4970547553e+00 5.8776531341e-05 2.4921102700e+00 -4.3164616056e+00 2.4921102700e+00 4.3164616056e+00 
92600 4.4970547554e+00 5.8774545909e-05 2.4921102700e+00 -4.3164616056e+00 2.4921102700e+00 4.3164616056e+00 
92700 4.4970547555e+00 5.8772579203e-05 2.4921102700e+00 -4.3164616056e+00 2.4921102700e+00 4.3164616056e+00 
92800 4.4970547555e+00 5.8770631389e-05 2.4921102700e+00 -4.3164616056e+00 2.4921102700e+00 4.3164616056e+00 
92900 4.4970547556e+00 5.8768702625e-05 2.4921102700e+00 -4.3164616056e+00 2.4921102700e+00 4.3164616056e+00 
93000 4.4970547556e+00 5.8766793057e-05 2.4921102700e+00 -4.3164616056e+00 2.4921102700e+00 4.3164616056e+00 
93100 4.4970547557e+00 5.8764902819e-05 2.4921102700e+00 -4.3164616056e+00 2.4921102700e+00 4.3164616056e+00 
93200 4.4970547557e+00 5.8763032026e-05 2.4921102700e+00 -4.3164616056e+00 2.4921102700e+00 4.3164616056e+00 
93300 4.4970547558e+00 5.8761180783e-05 2.4921102700e+00 -4.3164616056e+00 2.4921102700e+00 4.3164616056e+00 
93400 4.4970547558e+00 5.8759349178e-05 2.4921102700e+00 -4.3164616056e+00 2.4921102700e+00 4.3164616056e+00 
93500 4.4970547559e+00 5.8757537288e-05 2.4921102700e+00 -4.3164616056e+00 2.4921102700e+00 4.3164616056e+00 
93600 4.4970547559e+00 5.8755780815e-05 2.4921102700e+00 -4.3164616056e+00 2.4921102700e+00 4.3164616056e+00 
93600 4.4970547559e+00 5.8755780815e-05 2.4921102700e+00 -4.3164616056e+00 2.4921102700e+00 4.3164616056e+00 
