# step Hamiltonian StressXX CellTensor1 CellTensor2 CellTensor3 CellTensor4 
0 3.5984072552e+00 4.3808436148e-02 2.2220832177e+00 -3.8487610317e+00 2.2220832177e+00 3.8487610317e+00 
100 3.5874121378e+00 4.2606164500e-02 2.2220832177e+00 -3.8487610317e+00 2.2220832177e+00 3.8487610317e+00 
200 3.5772322220e+00 4.1357497987e-02 2.2211245880e+00 -3.8471006364e+00 2.2211245880e+00 3.8471006364e+00 
300 3.5678510414e+00 4.0413574309e-02 2.2201936495e+00 -3.8454882036e+00 2.2201936495e+00 3.8454882036e+00 
400 3.5592151278e+00 3.9751453747e-02 2.2192835755e+00 -3.8439119091e+00 2.2192835755e+00 3.8439119091e+00 
500 3.5512733271e+00 3.9348379768e-02 2.2183880437e+00 -3.8423608026e+00 2.2183880437e+00 3.8423608026e+00 
600 3.5439768294e+00 3.9181974104e-02 2.2175012341e+00 -3.8408248033e+00 2.2175012341e+00 3.8408248033e+00 
700 3.5372791865e+00 3.9230406057e-02 2.2166178215e+00 -3.8392946877e+00 2.2166178215e+00 3.8392946877e+00 
800 3.5311363171e+00 3.9472535779e-02 2.2157329645e+00 -3.8377620705e+00 2.2157329645e+00 3.8377620705e+00 
900 3.5255064968e+00 3.9888031984e-02 2.2148422910e+00 -3.8362193788e+00 2.2148422910e+00 3.8362193788e+00 
1000 3.5203503346e+00 4.0457465009e-02 2.2139418809e+00 -3.8346598228e+00 2.2139418809e+00 3.8346598228e+00 
1100 3.5156307359e+00 4.1162376666e-02 2.2130282463e+00 -3.8330773611e+00 2.2130282463e+00 3.8330773611e+00 
1200 3.5113128533e+00 4.1985328654e-02 2.2120983103e+00 -3.8314666647e+00 2.2120983103e+00 3.8314666647e+00 
1300 3.5073640269e+00 4.2909931587e-02 2.2111493849e+00 -3.8298230777e+00 2.2111493849e+00 3.8298230777e+00 
1400 3.5037537147e+00 4.3920856867e-02 2.2101791476e+00 -3.8281425774e+00 2.2101791476e+00 3.8281425774e+00 
1500 3.5004534162e+00 4.5003833711e-02 2.2091856181e+00 -3.8264217338e+00 2.2091856181e+00 3.8264217338e+00 
1600 3.4974365902e+00 4.6145633661e-02 2.2081671347e+00 -3.8246576690e+00 2.2081671347e+00 3.8246576690e+00 
1700 3.4946785685e+00 4.7334044811e-02 2.2071223318e+00 -3.8228480171e+00 2.2071223318e+00 3.8228480171e+00 
1800 3.4921564668e+00 4.8557837905e-02 2.2060501164e+00 -3.8209908856e+00 2.2060501164e+00 3.8209908856e+00 
1900 3.4898490948e+00 4.9806726248e-02 2.2049496473e+00 -3.8190848173e+00 2.2049496473e+00 3.8190848173e+00 
2000 3.4877368661e+00 5.1071321214e-02 2.2038203138e+00 -3.8171287542e+00 2.2038203138e+00 3.8171287542e+00 
2100 3.4858017087e+00 5.2343084886e-02 2.2026617156e+00 -3.8151220033e+00 2.2026617156e+00 3.8151220033e+00 
2200 3.4840269784e+00 5.3614281177e-02 2.2014736444e+00 -3.8130642037e+00 2.2014736444e+00 3.8130642037e+00 
2300 3.4823973729e+00 5.4877926526e-02 2.2002560660e+00 -3.8109552960e+00 2.2002560660e+00 3.8109552960e+00 
2400 3.4808988503e+00 5.6127741073e-02 2.1990091034e+00 -3.8087954935e+00 2.1990091034e+00 3.8087954935e+00 
2500 3.4795185495e+00 5.7358101026e-02 2.1977330217e+00 -3.8065852550e+00 2.1977330217e+00 3.8065852550e+00 
2600 3.4782447150e+00 5.8563992733e-02 2.1964282130e+00 -3.8043252601e+00 2.1964282130e+00 3.8043252601e+00 
2700 3.4770666240e+00 5.9740968852e-02 2.1950951837e+00 -3.8020163856e+00 2.1950951837e+00 3.8020163856e+00 
2800 3.4759745178e+00 6.0885106846e-02 2.1937345413e+00 -3.7996596838e+00 2.1937345413e+00 3.7996596838e+00 
2900 3.4749595360e+00 6.1992969945e-02 2.1923469831e+00 -3.7972563626e+00 2.1923469831e+00 3.7972563626e+00 
3000 3.4740136543e+00 6.3061570609e-02 2.1909332858e+00 -3.7948077670e+00 2.1909332858e+00 3.7948077670e+00 
3100 3.4731296251e+00 6.4088336479e-02 2.1894942949e+00 -3.7923153616e+00 2.1894942949e+00 3.7923153616e+00 
3200 3.4723009216e+00 6.5071078714e-02 2.1880309160e+00 -3.7897807151e+00 2.1880309160e+00 3.7897807151e+00 
3300 3.4715216841e+00 6.6007962619e-02 2.1865441065e+00 -3.7872054855e+00 2.1865441065e+00 3.7872054855e+00 
3400 3.4707866696e+00 6.6897480401e-02 2.1850348673e+00 -3.7845914065e+00 2.1850348673e+00 3.7845914065e+00 
3500 3.4700912037e+00 6.7738425915e-02 2.1835042358e+00 -3.7819402749e+00 2.1835042358e+00 3.7819402749e+00 
3600 3.4694311350e+00 6.8529871214e-02 2.1819532793e+00 -3.7792539396e+00 2.1819532793e+00 3.7792539396e+00 
3700 3.4688027921e+00 6.9271144760e-02 2.1803830889e+00 -3.7765342899e+00 2.1803830889e+00 3.7765342899e+00 
3800 3.4682029423e+00 6.9961811131e-02 2.1787947733e+00 -3.7737832466e+00 2.1787947733e+00 3.7737832466e+00 
3900 3.4676287535e+00 7.0601652079e-02 2.1771894543e+00 -3.7710027526e+00 2.1771894543e+00 3.7710027526e+00 
4000 3.4670777569e+00 7.1190648793e-02 2.1755682614e+00 -3.7681947641e+00 2.1755682614e+00 3.7681947641e+00 
4100 3.4665478130e+00 7.1728965272e-02 2.1739323275e+00 -3.7653612434e+00 2.1739323275e+00 3.7653612434e+00 
4200 3.4660370786e+00 7.2216932667e-02 2.1722827847e+00 -3.7625041515e+00 2.1722827847e+00 3.7625041515e+00 
4300 3.4655439767e+00 7.2655034525e-02 2.1706207609e+00 -3.7596254418e+00 2.1706207609e+00 3.7596254418e+00 
4400 3.4650671674e+00 7.3043892836e-02 2.1689473757e+00 -3.7567270537e+00 2.1689473757e+00 3.7567270537e+00 
4500 3.4646055213e+00 7.3384254835e-02 2.1672637380e+00 -3.7538109076e+00 2.1672637380e+00 3.7538109076e+00 
4600 3.4641580945e+00 7.3676980474e-02 2.1655709423e+00 -3.7508788995e+00 2.1655709423e+00 3.7508788995e+00 
4700 3.4637241055e+00 7.3923030554e-02 2.1638700669e+00 -3.7479328969e+00 2.1638700669e+00 3.7479328969e+00 
4800 3.4633029135e+00 7.4123455446e-02 2.1621621710e+00 -3.7449747343e+00 2.1621621710e+00 3.7449747343e+00 
4900 3.4628939989e+00 7.4279384394e-02 2.1604482927e+00 -3.7420062102e+00 2.1604482927e+00 3.7420062102e+00 
5000 3.4624969450e+00 7.4392015368e-02 2.1587294475e+00 -3.7390290828e+00 2.1587294475e+00 3.7390290828e+00 
5100 3.4621114219e+00 7.4462605450e-02 2.1570066260e+00 -3.7360450684e+00 2.1570066260e+00 3.7360450684e+00 
5200 3.4617371708e+00 7.4492461740e-02 2.1552807929e+00 -3.7330558379e+00 2.1552807929e+00 3.7330558379e+00 
5300 3.4613739912e+00 7.4482932771e-02 2.1535528858e+00 -3.7300630151e+00 2.1535528858e+00 3.7300630151e+00 
5400 3.4610217283e+00 7.4435400420e-02 2.1518238139e+00 -3.7270681746e+00 2.1518238139e+00 3.7270681746e+00 
5500 3.4606802626e+00 7.4351272314e-02 2.1500944572e+00 -3.7240728409e+00 2.1500944572e+00 3.7240728409e+00 
5600 3.4603495001e+00 7.4231974723e-02 2.1483656657e+00 -3.7210784862e+00 2.1483656657e+00 3.7210784862e+00 
5700 3.4600293642e+00 7.4078945919e-02 2.1466382592e+00 -3.7180865303e+00 2.1466382592e+00 3.7180865303e+00 
5800 3.4597197883e+00 7.3893630019e-02 2.1449130264e+00 -3.7150983395e+00 2.1449130264e+00 3.7150983395e+00 
5900 3.4594207099e+00 7.3677471279e-02 2.1431907250e+00 -3.7121152261e+00 2.1431907250e+00 3.7121152261e+00 
6000 3.4591320651e+00 7.3431908844e-02 2.1414720816e+00 -3.7091384483e+00 2.1414720816e+00 3.7091384483e+00 
6100 3.4588537848e+00 7.3158371944e-02 2.1397577911e+00 -3.7061692101e+00 2.1397577911e+00 3.7061692101e+00 
6200 3.4585857905e+00 7.2858275512e-02 2.1380485177e+00 -3.7032086617e+00 2.1380485177e+00 3.7032086617e+00 
6300 3.4583279923e+00 7.2533016227e-02 2.1363448943e+00 -3.7002578994e+00 2.1363448943e+00 3.7002578994e+00 
6400 3.4580802863e+00 7.2183968959e-02 2.1346475231e+00 -3.6973179663e+00 2.1346475231e+00 3.6973179663e+00 
6500 3.4578425534e+00 7.1812483603e-02 2.1329569763e+00 -3.6943898533e+00 2.1329569763e+00 3.6943898533e+00 
6600 3.4576146581e+00 7.1419882286e-02 2.1312737959e+00 -3.6914744993e+00 2.1312737959e+00 3.6914744993e+00 
6700 3.4573964484e+00 7.1007456932e-02 2.1295984945e+00 -3.6885727922e+00 2.1295984945e+00 3.6885727922e+00 
6800 3.4571877555e+00 7.0576467161e-02 2.1279315562e+00 -3.6856855704e+00 2.1279315562e+00 3.6856855704e+00 
6900 3.4569883941e+00 7.0128138517e-02 2.1262734368e+00 -3.6828136233e+00 2.1262734368e+00 3.6828136233e+00 
7000 3.4567981630e+00 6.9663660987e-02 2.1246245645e+00 -3.6799576928e+00 2.1246245645e+00 3.6799576928e+00 
7100 3.4566168460e+00 6.9184187814e-02 2.1229853409e+00 -3.6771184742e+00 2.1229853409e+00 3.6771184742e+00 
7200 3.4564442131e+00 6.8690834565e-02 2.1213561415e+00 -3.6742966180e+00 2.1213561415e+00 3.6742966180e+00 
7300 3.4562800213e+00 6.8184678448e-02 2.1197373164e+00 -3.6714927307e+00 2.1197373164e+00 3.6714927307e+00 
7400 3.4561240162e+00 6.7666757856e-02 2.1181291914e+00 -3.6687073766e+00 2.1181291914e+00 3.6687073766e+00 
7500 3.4559759336e+00 6.7138072110e-02 2.1165320687e+00 -3.6659410788e+00 2.1165320687e+00 3.6659410788e+00 
7600 3.4558355005e+00 6.6599581407e-02 2.1149462273e+00 -3.6631943210e+00 2.1149462273e+00 3.6631943210e+00 
7700 3.4557024370e+00 6.6052206919e-02 2.1133719246e+00 -3.6604675487e+00 2.1133719246e+00 3.6604675487e+00 
7800 3.4555764579e+00 6.5496831064e-02 2.1118093965e+00 -3.6577611707e+00 2.1118093965e+00 3.6577611707e+00 
7900 3.4554572738e+00 6.4934297904e-02 2.1102588586e+00 -3.6550755603e+00 2.1102588586e+00 3.6550755603e+00 
8000 3.4553445928e+00 6.4365413669e-02 2.1087205070e+00 -3.6524110572e+00 2.1087205070e+00 3.6524110572e+00 
8100 3.4552381219e+00 6.3790947385e-02 2.1071945190e+00 -3.6497679684e+00 2.1071945190e+00 3.6497679684e+00 
8200 3.4551375686e+00 6.3211631602e-02 2.1056810540e+00 -3.6471465701e+00 2.1056810540e+00 3.6471465701e+00 
8300 3.4550426417e+00 6.2628163189e-02 2.1041802541e+00 -3.6445471085e+00 2.1041802541e+00 3.6445471085e+00 
8400 3.4549530528e+00 6.2041204211e-02 2.1026922453e+00 -3.6419698016e+00 2.1026922453e+00 3.6419698016e+00 
8500 3.4548685176e+00 6.1451382849e-02 2.1012171378e+00 -3.6394148403e+00 2.1012171378e+00 3.6394148403e+00 
8600 3.4547887564e+00 6.0859294374e-02 2.0997550268e+00 -3.6368823899e+00 2.0997550268e+00 3.6368823899e+00 
8700 3.4547134955e+00 6.0265502152e-02 2.0983059938e+00 -3.6343725911e+00 2.0983059938e+00 3.6343725911e+00 
8800 3.4546424679e+00 5.9670538670e-02 2.0968701064e+00 -3.6318855611e+00 2.0968701064e+00 3.6318855611e+00 
8900 3.4545754141e+00 5.9074906596e-02 2.0954474196e+00 -3.6294213954e+00 2.0954474196e+00 3.6294213954e+00 
9000 3.4545120823e+00 5.8479079829e-02 2.0940379765e+00 -3.6269801683e+00 2.0940379765e+00 3.6269801683e+00 
9100 3.4544522298e+00 5.7883504571e-02 2.0926418085e+00 -3.6245619344e+00 2.0926418085e+00 3.6245619344e+00 
9200 3.4543956227e+00 5.7288600385e-02 2.0912589363e+00 -3.6221667295e+00 2.0912589363e+00 3.6221667295e+00 
9300 3.4543420364e+00 5.6694761254e-02 2.0898893703e+00 -3.6197945716e+00 2.0898893703e+00 3.6197945716e+00 
9400 3.4542912563e+00 5.6102356621e-02 2.0885331113e+00 -3.6174454621e+00 2.0885331113e+00 3.6174454621e+00 
9500 3.4542430777e+00 5.5511732424e-02 2.0871901511e+00 -3.6151193867e+00 2.0871901511e+00 3.6151193867e+00 
9600 3.4541973058e+00 5.4923212100e-02 2.0858604726e+00 -3.6128163161e+00 2.0858604726e+00 3.6128163161e+00 
9700 3.4541537560e+00 5.4337097576e-02 2.0845440512e+00 -3.6105362072e+00 2.0845440512e+00 3.6105362072e+00 
9800 3.4541122539e+00 5.3753670233e-02 2.0832408541e+00 -3.6082790038e+00 2.0832408541e+00 3.6082790038e+00 
9900 3.4540726351e+00 5.3173191846e-02 2.0819508420e+00 -3.6060446373e+00 2.0819508420e+00 3.6060446373e+00 
10000 3.4540347453e+00 5.2595905491e-02 2.0806739686e+00 -3.6038330277e+00 2.0806739686e+00 3.6038330277e+00 
10100 3.4539984397e+00 5.2022036431e-02 2.0794101816e+00 -3.6016440842e+00 2.0794101816e+00 3.6016440842e+00 
10200 3.4539635835e+00 5.1451792969e-02 2.0781594226e+00 -3.5994777062e+00 2.0781594226e+00 3.5994777062e+00 
10300 3.4539300510e+00 5.0885367267e-02 2.0769216282e+00 -3.5973337834e+00 2.0769216282e+00 3.5973337834e+00 
10400 3.4538977256e+00 5.0322936147e-02 2.0756967298e+00 -3.5952121971e+00 2.0756967298e+00 3.5952121971e+00 
10500 3.4538664996e+00 4.9764661843e-02 2.0744846540e+00 -3.5931128202e+00 2.0744846540e+00 3.5931128202e+00 
10600 3.4538362737e+00 4.9210692743e-02 2.0732853233e+00 -3.5910355185e+00 2.0732853233e+00 3.5910355185e+00 
10700 3.4538069568e+00 4.8661164087e-02 2.0720986560e+00 -3.5889801505e+00 2.0720986560e+00 3.5889801505e+00 
10800 3.4537784653e+00 4.8116198643e-02 2.0709245670e+00 -3.5869465687e+00 2.0709245670e+00 3.5869465687e+00 
10900 3.4537507234e+00 4.7575907349e-02 2.0697629675e+00 -3.5849346194e+00 2.0697629675e+00 3.5849346194e+00 
11000 3.4537236621e+00 4.7040389935e-02 2.0686137658e+00 -3.5829441437e+00 2.0686137658e+00 3.5829441437e+00 
11100 3.4536972190e+00 4.6509735506e-02 2.0674768673e+00 -3.5809749777e+00 2.0674768673e+00 3.5809749777e+00 
11200 3.4536713381e+00 4.5984023114e-02 2.0663521748e+00 -3.5790269531e+00 2.0663521748e+00 3.5790269531e+00 
11300 3.4536459691e+00 4.5463322289e-02 2.0652395887e+00 -3.5770998974e+00 2.0652395887e+00 3.5770998974e+00 
11400 3.4536210675e+00 4.4947693557e-02 2.0641390074e+00 -3.5751936347e+00 2.0641390074e+00 3.5751936347e+00 
11500 3.4535965936e+00 4.4437188927e-02 2.0630503273e+00 -3.5733079855e+00 2.0630503273e+00 3.5733079855e+00 
11600 3.4535725127e+00 4.3931852363e-02 2.0619734432e+00 -3.5714427676e+00 2.0619734432e+00 3.5714427676e+00 
11700 3.4535487944e+00 4.3431720226e-02 2.0609082484e+00 -3.5695977960e+00 2.0609082484e+00 3.5695977960e+00 
11800 3.4535254123e+00 4.2936821700e-02 2.0598546349e+00 -3.5677728838e+00 2.0598546349e+00 3.5677728838e+00 
11900 3.4535023439e+00 4.2447179201e-02 2.0588124934e+00 -3.5659678419e+00 2.0588124934e+00 3.5659678419e+00 
12000 3.4534795701e+00 4.1962808761e-02 2.0577817139e+00 -3.5641824793e+00 2.0577817139e+00 3.5641824793e+00 
12100 3.4534570746e+00 4.1483720397e-02 2.0567621854e+00 -3.5624166042e+00 2.0567621854e+00 3.5624166042e+00 
12200 3.4534348443e+00 4.1009918465e-02 2.0557537964e+00 -3.5606700232e+00 2.0557537964e+00 3.5606700232e+00 
12300 3.4534128684e+00 4.0541401997e-02 2.0547564347e+00 -3.5589425421e+00 2.0547564347e+00 3.5589425421e+00 
12400 3.4533911384e+00 4.0078165017e-02 2.0537699879e+00 -3.5572339662e+00 2.0537699879e+00 3.5572339662e+00 
12500 3.4533696479e+00 3.9620196852e-02 2.0527943434e+00 -3.5555441003e+00 2.0527943434e+00 3.5555441003e+00 
12600 3.4533483922e+00 3.9167482424e-02 2.0518293882e+00 -3.5538727488e+00 2.0518293882e+00 3.5538727488e+00 
12700 3.4533273681e+00 3.8720002527e-02 2.0508750095e+00 -3.5522197165e+00 2.0508750095e+00 3.5522197165e+00 
12800 3.4533065738e+00 3.8277734096e-02 2.0499310946e+00 -3.5505848079e+00 2.0499310946e+00 3.5505848079e+00 
12900 3.4532860088e+00 3.7840650460e-02 2.0489975308e+00 -3.5489678280e+00 2.0489975308e+00 3.5489678280e+00 
13000 3.4532656734e+00 3.7408721588e-02 2.0480742060e+00 -3.5473685825e+00 2.0480742060e+00 3.5473685825e+00 
13100 3.4532455688e+00 3.6981914324e-02 2.0471610081e+00 -3.5457868773e+00 2.0471610081e+00 3.5457868773e+00 
13200 3.4532256969e+00 3.6560192604e-02 2.0462578258e+00 -3.5442225196e+00 2.0462578258e+00 3.5442225196e+00 
13300 3.4532060601e+00 3.6143517675e-02 2.0453645480e+00 -3.5426753172e+00 2.0453645480e+00 3.5426753172e+00 
13400 3.4531866612e+00 3.5731848298e-02 2.0444810646e+00 -3.5411450790e+00 2.0444810646e+00 3.5411450790e+00 
13500 3.4531675034e+00 3.5325140942e-02 2.0436072658e+00 -3.5396316151e+00 2.0436072658e+00 3.5396316151e+00 
13600 3.4531485899e+00 3.4923349972e-02 2.0427430428e+00 -3.5381347369e+00 2.0427430428e+00 3.5381347369e+00 
13700 3.4531299243e+00 3.4526427827e-02 2.0418882873e+00 -3.5366542571e+00 2.0418882873e+00 3.5366542571e+00 
13800 3.4531115100e+00 3.4134325194e-02 2.0410428923e+00 -3.5351899899e+00 2.0410428923e+00 3.5351899899e+00 
13900 3.4530933505e+00 3.3746991169e-02 2.0402067513e+00 -3.5337417512e+00 2.0402067513e+00 3.5337417512e+00 
14000 3.4530754491e+00 3.3364373414e-02 2.0393797589e+00 -3.5323093583e+00 2.0393797589e+00 3.5323093583e+00 
14100 3.4530578089e+00 3.2986418310e-02 2.0385618106e+00 -3.5308926304e+00 2.0385618106e+00 3.5308926304e+00 
14200 3.4530404331e+00 3.2613071097e-02 2.0377528031e+00 -3.5294913883e+00 2.0377528031e+00 3.5294913883e+00 
14300 3.4530233244e+00 3.2244276012e-02 2.0369526341e+00 -3.5281054548e+00 2.0369526341e+00 3.5281054548e+00 
14400 3.4530064853e+00 3.1879976420e-02 2.0361612021e+00 -3.5267346545e+00 2.0361612021e+00 3.5267346545e+00 
14500 3.4529899179e+00 3.1520114940e-02 2.0353784072e+00 -3.5253788139e+00 2.0353784072e+00 3.5253788139e+00 
14600 3.4529736243e+00 3.1164633565e-02 2.0346041503e+00 -3.5240377616e+00 2.0346041503e+00 3.5240377616e+00 
14700 3.4529576060e+00 3.0813473771e-02 2.0338383336e+00 -3.5227113282e+00 2.0338383336e+00 3.5227113282e+00 
14800 3.4529418642e+00 3.0466576630e-02 2.0330808604e+00 -3.5213993461e+00 2.0330808604e+00 3.5213993461e+00 
14900 3.4529263998e+00 3.0123882914e-02 2.0323316353e+00 -3.5201016501e+00 2.0323316353e+00 3.5201016501e+00 
15000 3.4529112134e+00 2.9785333187e-02 2.0315905640e+00 -3.5188180771e+00 2.0315905640e+00 3.5188180771e+00 
15100 3.4528963053e+00 2.9450867905e-02 2.0308575536e+00 -3.5175484658e+00 2.0308575536e+00 3.5175484658e+00 
15200 3.4528816753e+00 2.9120427499e-02 2.0301325122e+00 -3.5162926573e+00 2.0301325122e+00 3.5162926573e+00 
15300 3.4528673230e+00 2.8793952462e-02 2.0294153494e+00 -3.5150504948e+00 2.0294153494e+00 3.5150504948e+00 
15400 3.4528532476e+00 2.8471383428e-02 2.0287059758e+00 -3.5138218236e+00 2.0287059758e+00 3.5138218236e+00 
15500 3.4528394480e+00 2.8152661243e-02 2.0280043033e+00 -3.5126064913e+00 2.0280043033e+00 3.5126064913e+00 
15600 3.4528259228e+00 2.7837727040e-02 2.0273102453e+00 -3.5114043475e+00 2.0273102453e+00 3.5114043475e+00 
15700 3.4528126704e+00 2.7526522303e-02 2.0266237160e+00 -3.5102152440e+00 2.0266237160e+00 3.5102152440e+00 
15800 3.4527996889e+00 2.7218988929e-02 2.0259446313e+00 -3.5090390347e+00 2.0259446313e+00 3.5090390347e+00 
15900 3.4527869760e+00 2.6915069286e-02 2.0252729080e+00 -3.5078755758e+00 2.0252729080e+00 3.5078755758e+00 
16000 3.4527745293e+00 2.6614706270e-02 2.0246084643e+00 -3.5067247256e+00 2.0246084643e+00 3.5067247256e+00 
16100 3.4527623462e+00 2.6317843351e-02 2.0239512195e+00 -3.5055863442e+00 2.0239512195e+00 3.5055863442e+00 
16200 3.4527504237e+00 2.6024424624e-02 2.0233010943e+00 -3.5044602944e+00 2.0233010943e+00 3.5044602944e+00 
16300 3.4527387589e+00 2.5734394849e-02 2.0226580105e+00 -3.5033464405e+00 2.0226580105e+00 3.5033464405e+00 
16400 3.4527273484e+00 2.5447699494e-02 2.0220218909e+00 -3.5022446491e+00 2.0220218909e+00 3.5022446491e+00 
16500 3.4527161889e+00 2.5164284770e-02 2.0213926599e+00 -3.5011547889e+00 2.0213926599e+00 3.5011547889e+00 
16600 3.4527052769e+00 2.4884097666e-02 2.0207702426e+00 -3.5000767307e+00 2.0207702426e+00 3.5000767307e+00 
16700 3.4526946086e+00 2.4607085975e-02 2.0201545657e+00 -3.4990103469e+00 2.0201545657e+00 3.4990103469e+00 
16800 3.4526841803e+00 2.4333198327e-02 2.0195455566e+00 -3.4979555122e+00 2.0195455566e+00 3.4979555122e+00 
16900 3.4526739881e+00 2.4062384210e-02 2.0189431441e+00 -3.4969121032e+00 2.0189431441e+00 3.4969121032e+00 
17000 3.4526640281e+00 2.3794593990e-02 2.0183472581e+00 -3.4958799984e+00 2.0183472581e+00 3.4958799984e+00 
17100 3.4526542962e+00 2.3529778937e-02 2.0177578294e+00 -3.4948590779e+00 2.0177578294e+00 3.4948590779e+00 
17200 3.4526447884e+00 2.3267891230e-02 2.0171747900e+00 -3.4938492241e+00 2.0171747900e+00 3.4938492241e+00 
17300 3.4526355005e+00 2.3008883983e-02 2.0165980730e+00 -3.4928503209e+00 2.0165980730e+00 3.4928503209e+00 
17400 3.4526264283e+00 2.2752711245e-02 2.0160276123e+00 -3.4918622540e+00 2.0160276123e+00 3.4918622540e+00 
17500 3.4526175678e+00 2.2499328020e-02 2.0154633430e+00 -3.4908849109e+00 2.0154633430e+00 3.4908849109e+00 
17600 3.4526089147e+00 2.2248690262e-02 2.0149052011e+00 -3.4899181808e+00 2.0149052011e+00 3.4899181808e+00 
17700 3.4526004648e+00 2.2000754891e-02 2.0143531237e+00 -3.4889619546e+00 2.0143531237e+00 3.4889619546e+00 
17800 3.4525922139e+00 2.1755479789e-02 2.0138070486e+00 -3.4880161249e+00 2.0138070486e+00 3.4880161249e+00 
17900 3.4525841579e+00 2.1512823800e-02 2.0132669148e+00 -3.4870805856e+00 2.0132669148e+00 3.4870805856e+00 
18000 3.4525762927e+00 2.1272746735e-02 2.0127326619e+00 -3.4861552325e+00 2.0127326619e+00 3.4861552325e+00 
18100 3.4525686141e+00 2.1035209365e-02 2.0122042307e+00 -3.4852399628e+00 2.0122042307e+00 3.4852399628e+00 
18200 3.4525611181e+00 2.0800173414e-02 2.0116815626e+00 -3.4843346751e+00 2.0116815626e+00 3.4843346751e+00 
18300 3.4525538007e+00 2.0567601560e-02 2.0111646000e+00 -3.4834392696e+00 2.0111646000e+00 3.4834392696e+00 
18400 3.4525466578e+00 2.0337457422e-02 2.0106532861e+00 -3.4825536479e+00 2.0106532861e+00 3.4825536479e+00 
18500 3.4525396856e+00 2.0109705555e-02 2.0101475648e+00 -3.4816777129e+00 2.0101475648e+00 3.4816777129e+00 
18600 3.4525328802e+00 1.9884311437e-02 2.0096473808e+00 -3.4808113689e+00 2.0096473808e+00 3.4808113689e+00 
18700 3.4525262378e+00 1.9661241459e-02 2.0091526797e+00 -3.4799545214e+00 2.0091526797e+00 3.4799545214e+00 
18800 3.4525197547e+00 1.9440462913e-02 2.0086634077e+00 -3.4791070775e+00 2.0086634077e+00 3.4791070775e+00 
18900 3.4525134271e+00 1.9221943980e-02 2.0081795118e+00 -3.4782689451e+00 2.0081795118e+00 3.4782689451e+00 
19000 3.4525072515e+00 1.9005653713e-02 2.0077009395e+00 -3.4774400336e+00 2.0077009395e+00 3.4774400336e+00 
19100 3.4525012244e+00 1.8791562024e-02 2.0072276393e+00 -3.4766202535e+00 2.0072276393e+00 3.4766202535e+00 
19200 3.4524953423e+00 1.8579639666e-02 2.0067595600e+00 -3.4758095165e+00 2.0067595600e+00 3.4758095165e+00 
19300 3.4524896017e+00 1.8369858221e-02 2.0062966514e+00 -3.4750077353e+00 2.0062966514e+00 3.4750077353e+00 
19400 3.4524839994e+00 1.8162190075e-02 2.0058388637e+00 -3.4742148237e+00 2.0058388637e+00 3.4742148237e+00 
19500 3.4524785322e+00 1.7956608410e-02 2.0053861477e+00 -3.4734306966e+00 2.0053861477e+00 3.4734306966e+00 
19600 3.4524731968e+00 1.7753087176e-02 2.0049384549e+00 -3.4726552699e+00 2.0049384549e+00 3.4726552699e+00 
19700 3.4524679902e+00 1.7551601080e-02 2.0044957372e+00 -3.4718884604e+00 2.0044957372e+00 3.4718884604e+00 
19800 3.4524629094e+00 1.7352125563e-02 2.0040579472e+00 -3.4711301859e+00 2.0040579472e+00 3.4711301859e+00 
19900 3.4524579513e+00 1.7154636779e-02 2.0036250381e+00 -3.4703803653e+00 2.0036250381e+00 3.4703803653e+00 
20000 3.4524531131e+00 1.6959111582e-02 2.0031969633e+00 -3.4696389181e+00 2.0031969633e+00 3.4696389181e+00 
20100 3.4524483921e+00 1.6765527496e-02 2.0027736771e+00 -3.4689057648e+00 2.0027736771e+00 3.4689057648e+00 
20200 3.4524437854e+00 1.6573862706e-02 2.0023551340e+00 -3.4681808268e+00 2.0023551340e+00 3.4681808268e+00 
20300 3.4524392904e+00 1.6384096028e-02 2.0019412890e+00 -3.4674640263e+00 2.0019412890e+00 3.4674640263e+00 
20400 3.4524349044e+00 1.6196206895e-02 2.0015320977e+00 -3.4667552863e+00 2.0015320977e+00 3.4667552863e+00 
20500 3.4524306251e+00 1.6010175337e-02 2.0011275161e+00 -3.4660545304e+00 2.0011275161e+00 3.4660545304e+00 
20600 3.4524264497e+00 1.5825981953e-02 2.0007275006e+00 -3.4653616831e+00 2.0007275006e+00 3.4653616831e+00 
20700 3.4524223761e+00 1.5643607902e-02 2.0003320080e+00 -3.4646766698e+00 2.0003320080e+00 3.4646766698e+00 
20800 3.4524184017e+00 1.5463034875e-02 1.9999409954e+00 -3.4639994162e+00 1.9999409954e+00 3.4639994162e+00 
20900 3.4524145244e+00 1.5284245077e-02 1.9995544206e+00 -3.4633298490e+00 1.9995544206e+00 3.4633298490e+00 
21000 3.4524107418e+00 1.5107221208e-02 1.9991722415e+00 -3.4626678953e+00 1.9991722415e+00 3.4626678953e+00 
21100 3.4524070518e+00 1.4931946444e-02 1.9987944165e+00 -3.4620134832e+00 1.9987944165e+00 3.4620134832e+00 
21200 3.4524034523e+00 1.4758404415e-02 1.9984209043e+00 -3.4613665412e+00 1.9984209043e+00 3.4613665412e+00 
21300 3.4523999412e+00 1.4586579191e-02 1.9980516640e+00 -3.4607269982e+00 1.9980516640e+00 3.4607269982e+00 
21400 3.4523965165e+00 1.4416455257e-02 1.9976866551e+00 -3.4600947842e+00 1.9976866551e+00 3.4600947842e+00 
21500 3.4523931762e+00 1.4248017499e-02 1.9973258372e+00 -3.4594698293e+00 1.9973258372e+00 3.4594698293e+00 
21600 3.4523899184e+00 1.4081251184e-02 1.9969691705e+00 -3.4588520644e+00 1.9969691705e+00 3.4588520644e+00 
21700 3.4523867412e+00 1.3916141942e-02 1.9966166153e+00 -3.4582414209e+00 1.9966166153e+00 3.4582414209e+00 
21800 3.4523836428e+00 1.3752675752e-02 1.9962681323e+00 -3.4576378307e+00 1.9962681323e+00 3.4576378307e+00 
21900 3.4523806214e+00 1.3590838920e-02 1.9959236826e+00 -3.4570412263e+00 1.9959236826e+00 3.4570412263e+00 
22000 3.4523776753e+00 1.3430618064e-02 1.9955832274e+00 -3.4564515406e+00 1.9955832274e+00 3.4564515406e+00 
22100 3.4523748027e+00 1.3272000101e-02 1.9952467283e+00 -3.4558687070e+00 1.9952467283e+00 3.4558687070e+00 
22200 3.4523720021e+00 1.3114972227e-02 1.9949141471e+00 -3.4552926594e+00 1.9949141471e+00 3.4552926594e+00 
22300 3.4523692717e+00 1.2959521905e-02 1.9945854459e+00 -3.4547233323e+00 1.9945854459e+00 3.4547233323e+00 
22400 3.4523666100e+00 1.2805636847e-02 1.9942605872e+00 -3.4541606605e+00 1.9942605872e+00 3.4541606605e+00 
22500 3.4523640155e+00 1.2653305002e-02 1.9939395335e+00 -3.4536045792e+00 1.9939395335e+00 3.4536045792e+00 
22600 3.4523614866e+00 1.2502514540e-02 1.9936222478e+00 -3.4530550243e+00 1.9936222478e+00 3.4530550243e+00 
22700 3.4523590218e+00 1.2353253842e-02 1.9933086933e+00 -3.4525119319e+00 1.9933086933e+00 3.4525119319e+00 
22800 3.4523566197e+00 1.2205511481e-02 1.9929988332e+00 -3.4519752386e+00 1.9929988332e+00 3.4519752386e+00 
22900 3.4523542790e+00 1.2059276215e-02 1.9926926314e+00 -3.4514448814e+00 1.9926926314e+00 3.4514448814e+00 
23000 3.4523519981e+00 1.1914536974e-02 1.9923900516e+00 -3.4509207978e+00 1.9923900516e+00 3.4509207978e+00 
23100 3.4523497757e+00 1.1771282845e-02 1.9920910579e+00 -3.4504029256e+00 1.9920910579e+00 3.4504029256e+00 
23200 3.4523476105e+00 1.1629503063e-02 1.9917956148e+00 -3.4498912031e+00 1.9917956148e+00 3.4498912031e+00 
23300 3.4523455012e+00 1.1489187000e-02 1.9915036868e+00 -3.4493855690e+00 1.9915036868e+00 3.4493855690e+00 
23400 3.4523434466e+00 1.1350324157e-02 1.9912152387e+00 -3.4488859622e+00 1.9912152387e+00 3.4488859622e+00 
23500 3.4523414454e+00 1.1212904149e-02 1.9909302355e+00 -3.4483923222e+00 1.9909302355e+00 3.4483923222e+00 
23600 3.4523394963e+00 1.1076916700e-02 1.9906486425e+00 -3.4479045889e+00 1.9906486425e+00 3.4479045889e+00 
23700 3.4523375982e+00 1.0942351632e-02 1.9903704252e+00 -3.4474227023e+00 1.9903704252e+00 3.4474227023e+00 
23800 3.4523357498e+00 1.0809198857e-02 1.9900955492e+00 -3.4469466032e+00 1.9900955492e+00 3.4469466032e+00 
23900 3.4523339501e+00 1.0677448371e-02 1.9898239805e+00 -3.4464762324e+00 1.9898239805e+00 3.4464762324e+00 
24000 3.4523321980e+00 1.0547090241e-02 1.9895556852e+00 -3.4460115313e+00 1.9895556852e+00 3.4460115313e+00 
24100 3.4523304922e+00 1.0418114602e-02 1.9892906297e+00 -3.4455524416e+00 1.9892906297e+00 3.4455524416e+00 
24200 3.4523288318e+00 1.0290511651e-02 1.9890287804e+00 -3.4450989054e+00 1.9890287804e+00 3.4450989054e+00 
24300 3.4523272157e+00 1.0164271637e-02 1.9887701042e+00 -3.4446508650e+00 1.9887701042e+00 3.4446508650e+00 
24400 3.4523256428e+00 1.0039384856e-02 1.9885145680e+00 -3.4442082634e+00 1.9885145680e+00 3.4442082634e+00 
24500 3.4523241122e+00 9.9158416479e-03 1.9882621391e+00 -3.4437710437e+00 1.9882621391e+00 3.4437710437e+00 
24600 3.4523226228e+00 9.7936323877e-03 1.9880127848e+00 -3.4433391493e+00 1.9880127848e+00 3.4433391493e+00 
24700 3.4523211736e+00 9.6727474829e-03 1.9877664727e+00 -3.4429125244e+00 1.9877664727e+00 3.4429125244e+00 
24800 3.4523197638e+00 9.5531773677e-03 1.9875231708e+00 -3.4424911130e+00 1.9875231708e+00 3.4424911130e+00 
24900 3.4523183923e+00 9.4349124995e-03 1.9872828469e+00 -3.4420748598e+00 1.9872828469e+00 3.4420748598e+00 
25000 3.4523170582e+00 9.3179433543e-03 1.9870454694e+00 -3.4416637100e+00 1.9870454694e+00 3.4416637100e+00 
25100 3.4523157607e+00 9.2022604238e-03 1.9868110067e+00 -3.4412576087e+00 1.9868110067e+00 3.4412576087e+00 
25200 3.4523144989e+00 9.0878542114e-03 1.9865794275e+00 -3.4408565018e+00 1.9865794275e+00 3.4408565018e+00 
25300 3.4523132719e+00 8.9747152299e-03 1.9863507007e+00 -3.4404603353e+00 1.9863507007e+00 3.4404603353e+00 
25400 3.4523120788e+00 8.8628339983e-03 1.9861247954e+00 -3.4400690557e+00 1.9861247954e+00 3.4400690557e+00 
25500 3.4523109188e+00 8.7522010397e-03 1.9859016808e+00 -3.4396826100e+00 1.9859016808e+00 3.4396826100e+00 
25600 3.4523097912e+00 8.6428068790e-03 1.9856813265e+00 -3.4393009451e+00 1.9856813265e+00 3.4393009451e+00 
25700 3.4523086951e+00 8.5346420410e-03 1.9854637022e+00 -3.4389240088e+00 1.9854637022e+00 3.4389240088e+00 
25800 3.4523076297e+00 8.4276970489e-03 1.9852487779e+00 -3.4385517490e+00 1.9852487779e+00 3.4385517490e+00 
25900 3.4523065943e+00 8.3219624227e-03 1.9850365237e+00 -3.4381841140e+00 1.9850365237e+00 3.4381841140e+00 
26000 3.4523055881e+00 8.2174286784e-03 1.9848269101e+00 -3.4378210525e+00 1.9848269101e+00 3.4378210525e+00 
26100 3.4523046105e+00 8.1140863266e-03 1.9846199075e+00 -3.4374625135e+00 1.9846199075e+00 3.4374625135e+00 
26200 3.4523036606e+00 8.0119258720e-03 1.9844154868e+00 -3.4371084465e+00 1.9844154868e+00 3.4371084465e+00 
26300 3.4523027378e+00 7.9109378128e-03 1.9842136191e+00 -3.4367588013e+00 1.9842136191e+00 3.4367588013e+00 
26400 3.4523018414e+00 7.8111126406e-03 1.9840142755e+00 -3.4364135280e+00 1.9840142755e+00 3.4364135280e+00 
26500 3.4523009707e+00 7.7124408395e-03 1.9838174275e+00 -3.4360725774e+00 1.9838174275e+00 3.4360725774e+00 
26600 3.4523001251e+00 7.6149128871e-03 1.9836230468e+00 -3.4357359002e+00 1.9836230468e+00 3.4357359002e+00 
26700 3.4522993040e+00 7.5185192538e-03 1.9834311054e+00 -3.4354034478e+00 1.9834311054e+00 3.4354034478e+00 
26800 3.4522985066e+00 7.4232504034e-03 1.9832415752e+00 -3.4350751720e+00 1.9832415752e+00 3.4350751720e+00 
26900 3.4522977324e+00 7.3290967937e-03 1.9830544288e+00 -3.4347510248e+00 1.9830544288e+00 3.4347510248e+00 
27000 3.4522969809e+00 7.2360488770e-03 1.9828696385e+00 -3.4344309587e+00 1.9828696385e+00 3.4344309587e+00 
27100 3.4522962513e+00 7.1440971006e-03 1.9826871772e+00 -3.4341149265e+00 1.9826871772e+00 3.4341149265e+00 
27200 3.4522955432e+00 7.0532319077e-03 1.9825070180e+00 -3.4338028815e+00 1.9825070180e+00 3.4338028815e+00 
27300 3.4522948559e+00 6.9634437384e-03 1.9823291340e+00 -3.4334947773e+00 1.9823291340e+00 3.4334947773e+00 
27400 3.4522941890e+00 6.8747230309e-03 1.9821534986e+00 -3.4331905680e+00 1.9821534986e+00 3.4331905680e+00 
27500 3.4522935419e+00 6.7870602221e-03 1.9819800856e+00 -3.4328902079e+00 1.9819800856e+00 3.4328902079e+00 
27600 3.4522929140e+00 6.7004457493e-03 1.9818088689e+00 -3.4325936519e+00 1.9818088689e+00 3.4325936519e+00 
27700 3.4522923049e+00 6.6148700512e-03 1.9816398226e+00 -3.4323008550e+00 1.9816398226e+00 3.4323008550e+00 
27800 3.4522917140e+00 6.5303235694e-03 1.9814729210e+00 -3.4320117730e+00 1.9814729210e+00 3.4320117730e+00 
27900 3.4522911410e+00 6.4467967498e-03 1.9813081387e+00 -3.4317263617e+00 1.9813081387e+00 3.4317263617e+00 
28000 3.4522905852e+00 6.3642800438e-03 1.9811454505e+00 -3.4314445775e+00 1.9811454505e+00 3.4314445775e+00 
28100 3.4522900462e+00 6.2827639103e-03 1.9809848315e+00 -3.4311663771e+00 1.9809848315e+00 3.4311663771e+00 
28200 3.4522895237e+00 6.2022388168e-03 1.9808262568e+00 -3.4308917177e+00 1.9808262568e+00 3.4308917177e+00 
28300 3.4522890170e+00 6.1226952414e-03 1.9806697020e+00 -3.4306205569e+00 1.9806697020e+00 3.4306205569e+00 
28400 3.4522885259e+00 6.0441236741e-03 1.9805151428e+00 -3.4303528524e+00 1.9805151428e+00 3.4303528524e+00 
28500 3.4522880499e+00 5.9665146188e-03 1.9803625550e+00 -3.4300885627e+00 1.9803625550e+00 3.4300885627e+00 
28600 3.4522875885e+00 5.8898585946e-03 1.9802119150e+00 -3.4298276465e+00 1.9802119150e+00 3.4298276465e+00 
28700 3.4522871415e+00 5.8141461381e-03 1.9800631990e+00 -3.4295700628e+00 1.9800631990e+00 3.4295700628e+00 
28800 3.4522867083e+00 5.7393678044e-03 1.9799163836e+00 -3.4293157711e+00 1.9799163836e+00 3.4293157711e+00 
28900 3.4522862886e+00 5.6655141694e-03 1.9797714457e+00 -3.4290647313e+00 1.9797714457e+00 3.4290647313e+00 
29000 3.4522858820e+00 5.5925758315e-03 1.9796283624e+00 -3.4288169037e+00 1.9796283624e+00 3.4288169037e+00 
29100 3.4522854882e+00 5.5205434129e-03 1.9794871109e+00 -3.4285722490e+00 1.9794871109e+00 3.4285722490e+00 
29200 3.4522851069e+00 5.4494075619e-03 1.9793476687e+00 -3.4283307281e+00 1.9793476687e+00 3.4283307281e+00 
29300 3.4522847376e+00 5.3791589544e-03 1.9792100137e+00 -3.4280923025e+00 1.9792100137e+00 3.4280923025e+00 
29400 3.4522843800e+00 5.3097882953e-03 1.9790741237e+00 -3.4278569341e+00 1.9790741237e+00 3.4278569341e+00 
29500 3.4522840339e+00 5.2412863211e-03 1.9789399769e+00 -3.4276245851e+00 1.9789399769e+00 3.4276245851e+00 
29600 3.4522836988e+00 5.1736438004e-03 1.9788075517e+00 -3.4273952180e+00 1.9788075517e+00 3.4273952180e+00 
29700 3.4522833746e+00 5.1068515369e-03 1.9786768269e+00 -3.4271687959e+00 1.9786768269e+00 3.4271687959e+00 
29800 3.4522830608e+00 5.0409003698e-03 1.9785477812e+00 -3.4269452822e+00 1.9785477812e+00 3.4269452822e+00 
29900 3.4522827572e+00 4.9757811765e-03 1.9784203936e+00 -3.4267246405e+00 1.9784203936e+00 3.4267246405e+00 
30000 3.4522824635e+00 4.9114848734e-03 1.9782946436e+00 -3.4265068350e+00 1.9782946436e+00 3.4265068350e+00 
30100 3.4522821794e+00 4.8480024182e-03 1.9781705106e+00 -3.4262918304e+00 1.9781705106e+00 3.4262918304e+00 
30200 3.4522819046e+00 4.7853248107e-03 1.9780479743e+00 -3.4260795913e+00 1.9780479743e+00 3.4260795913e+00 
30300 3.4522816389e+00 4.7234430949e-03 1.9779270148e+00 -3.4258700832e+00 1.9779270148e+00 3.4258700832e+00 
30400 3.4522813821e+00 4.6623483606e-03 1.9778076121e+00 -3.4256632717e+00 1.9778076121e+00 3.4256632717e+00 
30500 3.4522811338e+00 4.6020317441e-03 1.9776897467e+00 -3.4254591229e+00 1.9776897467e+00 3.4254591229e+00 
30600 3.4522808939e+00 4.5424844303e-03 1.9775733991e+00 -3.4252576030e+00 1.9775733991e+00 3.4252576030e+00 
30700 3.4522806620e+00 4.4836976540e-03 1.9774585503e+00 -3.4250586790e+00 1.9774585503e+00 3.4250586790e+00 
30800 3.4522804380e+00 4.4256627009e-03 1.9773451812e+00 -3.4248623179e+00 1.9773451812e+00 3.4248623179e+00 
30900 3.4522802216e+00 4.3683709093e-03 1.9772332730e+00 -3.4246684873e+00 1.9772332730e+00 3.4246684873e+00 
31000 3.4522800126e+00 4.3118136710e-03 1.9771228073e+00 -3.4244771550e+00 1.9771228073e+00 3.4244771550e+00 
31100 3.4522798108e+00 4.2559824330e-03 1.9770137657e+00 -3.4242882894e+00 1.9770137657e+00 3.4242882894e+00 
31200 3.4522796160e+00 4.2008686982e-03 1.9769061300e+00 -3.4241018589e+00 1.9769061300e+00 3.4241018589e+00 
31300 3.4522794280e+00 4.1464640266e-03 1.9767998824e+00 -3.4239178327e+00 1.9767998824e+00 3.4239178327e+00 
31400 3.4522792466e+00 4.0927600367e-03 1.9766950051e+00 -3.4237361799e+00 1.9766950051e+00 3.4237361799e+00 
31500 3.4522790715e+00 4.0397484065e-03 1.9765914807e+00 -3.4235568704e+00 1.9765914807e+00 3.4235568704e+00 
31600 3.4522789027e+00 3.9874208740e-03 1.9764892918e+00 -3.4233798740e+00 1.9764892918e+00 3.4233798740e+00 
31700 3.4522787399e+00 3.9357692389e-03 1.9763884214e+00 -3.4232051613e+00 1.9763884214e+00 3.4232051613e+00 
31800 3.4522785829e+00 3.8847853629e-03 1.9762888525e+00 -3.4230327029e+00 1.9762888525e+00 3.4230327029e+00 
31900 3.4522784316e+00 3.8344611710e-03 1.9761905684e+00 -3.4228624700e+00 1.9761905684e+00 3.4228624700e+00 
32000 3.4522782858e+00 3.7847886519e-03 1.9760935527e+00 -3.4226944339e+00 1.9760935527e+00 3.4226944339e+00 
32100 3.4522781454e+00 3.7357598594e-03 1.9759977891e+00 -3.4225285664e+00 1.9759977891e+00 3.4225285664e+00 
32200 3.4522780101e+00 3.6873669125e-03 1.9759032614e+00 -3.4223648396e+00 1.9759032614e+00 3.4223648396e+00 
32300 3.4522778799e+00 3.6396019964e-03 1.9758099538e+00 -3.4222032260e+00 1.9758099538e+00 3.4222032260e+00 
32400 3.4522777545e+00 3.5924573631e-03 1.9757178504e+00 -3.4220436984e+00 1.9757178504e+00 3.4220436984e+00 
32500 3.4522776339e+00 3.5459253323e-03 1.9756269359e+00 -3.4218862297e+00 1.9756269359e+00 3.4218862297e+00 
32600 3.4522775179e+00 3.4999982913e-03 1.9755371948e+00 -3.4217307936e+00 1.9755371948e+00 3.4217307936e+00 
32700 3.4522774063e+00 3.4546686961e-03 1.9754486120e+00 -3.4215773637e+00 1.9754486120e+00 3.4215773637e+00 
32800 3.4522772990e+00 3.4099290717e-03 1.9753611725e+00 -3.4214259141e+00 1.9753611725e+00 3.4214259141e+00 
32900 3.4522771959e+00 3.3657720125e-03 1.9752748616e+00 -3.4212764192e+00 1.9752748616e+00 3.4212764192e+00 
33000 3.4522770969e+00 3.3221901827e-03 1.9751896647e+00 -3.4211288538e+00 1.9751896647e+00 3.4211288538e+00 
33100 3.4522770018e+00 3.2791763169e-03 1.9751055673e+00 -3.4209831928e+00 1.9751055673e+00 3.4209831928e+00 
33200 3.4522769106e+00 3.2367232199e-03 1.9750225552e+00 -3.4208394116e+00 1.9750225552e+00 3.4208394116e+00 
33300 3.4522768230e+00 3.1948237675e-03 1.9749406143e+00 -3.4206974859e+00 1.9749406143e+00 3.4206974859e+00 
33400 3.4522767390e+00 3.1534709063e-03 1.9748597308e+00 -3.4205573916e+00 1.9748597308e+00 3.4205573916e+00 
33500 3.4522766585e+00 3.1126576545e-03 1.9747798910e+00 -3.4204191049e+00 1.9747798910e+00 3.4204191049e+00 
33600 3.4522765814e+00 3.0723771013e-03 1.9747010813e+00 -3.4202826025e+00 1.9747010813e+00 3.4202826025e+00 
33700 3.4522765075e+00 3.0326224078e-03 1.9746232883e+00 -3.4201478611e+00 1.9746232883e+00 3.4201478611e+00 
33800 3.4522764368e+00 2.9933868064e-03 1.9745464989e+00 -3.4200148580e+00 1.9745464989e+00 3.4200148580e+00 
33900 3.4522763692e+00 2.9546636013e-03 1.9744707000e+00 -3.4198835705e+00 1.9744707000e+00 3.4198835705e+00 
34000 3.4522763045e+00 2.9164461686e-03 1.9743958788e+00 -3.4197539764e+00 1.9743958788e+00 3.4197539764e+00 
34100 3.4522762427e+00 2.8787279558e-03 1.9743220226e+00 -3.4196260537e+00 1.9743220226e+00 3.4196260537e+00 
34200 3.4522761836e+00 2.8415024824e-03 1.9742491189e+00 -3.4194997807e+00 1.9742491189e+00 3.4194997807e+00 
34300 3.4522761273e+00 2.8047633393e-03 1.9741771552e+00 -3.4193751359e+00 1.9741771552e+00 3.4193751359e+00 
34400 3.4522760736e+00 2.7685041889e-03 1.9741061193e+00 -3.4192520982e+00 1.9741061193e+00 3.4192520982e+00 
34500 3.4522760224e+00 2.7327187651e-03 1.9740359993e+00 -3.4191306467e+00 1.9740359993e+00 3.4191306467e+00 
34600 3.4522759736e+00 2.6974008731e-03 1.9739667832e+00 -3.4190107609e+00 1.9739667832e+00 3.4190107609e+00 
34700 3.4522759272e+00 2.6625443889e-03 1.9738984592e+00 -3.4188924203e+00 1.9738984592e+00 3.4188924203e+00 
34800 3.4522758831e+00 2.6281432596e-03 1.9738310158e+00 -3.4187756049e+00 1.9738310158e+00 3.4187756049e+00 
34900 3.4522758412e+00 2.5941915028e-03 1.9737644415e+00 -3.4186602948e+00 1.9737644415e+00 3.4186602948e+00 
35000 3.4522758015e+00 2.5606832065e-03 1.9736987250e+00 -3.4185464705e+00 1.9736987250e+00 3.4185464705e+00 
35100 3.4522757638e+00 2.5276125288e-03 1.9736338552e+00 -3.4184341127e+00 1.9736338552e+00 3.4184341127e+00 
35200 3.4522757282e+00 2.4949736974e-03 1.9735698210e+00 -3.4183232023e+00 1.9735698210e+00 3.4183232023e+00 
35300 3.4522756944e+00 2.4627610097e-03 1.9735066117e+00 -3.4182137205e+00 1.9735066117e+00 3.4182137205e+00 
35400 3.4522756626e+00 2.4309688321e-03 1.9734442165e+00 -3.4181056488e+00 1.9734442165e+00 3.4181056488e+00 
35500 3.4522756325e+00 2.3995915996e-03 1.9733826248e+00 -3.4179989689e+00 1.9733826248e+00 3.4179989689e+00 
35600 3.4522756042e+00 2.3686238159e-03 1.9733218261e+00 -3.4178936625e+00 1.9733218261e+00 3.4178936625e+00 
35700 3.4522755776e+00 2.3380600522e-03 1.9732618103e+00 -3.4177897120e+00 1.9732618103e+00 3.4177897120e+00 
35800 3.4522755527e+00 2.3078949477e-03 1.9732025670e+00 -3.4176870997e+00 1.9732025670e+00 3.4176870997e+00 
35900 3.4522755293e+00 2.2781232082e-03 1.9731440864e+00 -3.4175858083e+00 1.9731440864e+00 3.4175858083e+00 
36000 3.4522755074e+00 2.2487396064e-03 1.9730863584e+00 -3.4174858205e+00 1.9730863584e+00 3.4174858205e+00 
36100 3.4522754871e+00 2.2197389812e-03 1.9730293734e+00 -3.4173871195e+00 1.9730293734e+00 3.4173871195e+00 
36200 3.4522754681e+00 2.1911162371e-03 1.9729731216e+00 -3.4172896885e+00 1.9729731216e+00 3.4172896885e+00 
36300 3.4522754505e+00 2.1628663438e-03 1.9729175935e+00 -3.4171935112e+00 1.9729175935e+00 3.4171935112e+00 
36400 3.4522754342e+00 2.1349843355e-03 1.9728627799e+00 -3.4170985711e+00 1.9728627799e+00 3.4170985711e+00 
36500 3.4522754192e+00 2.1074653108e-03 1.9728086714e+00 -3.4170048524e+00 1.9728086714e+00 3.4170048524e+00 
36600 3.4522754055e+00 2.0803044317e-03 1.9727552588e+00 -3.4169123391e+00 1.9727552588e+00 3.4169123391e+00 
36700 3.4522753929e+00 2.0534969233e-03 1.9727025332e+00 -3.4168210156e+00 1.9727025332e+00 3.4168210156e+00 
36800 3.4522753815e+00 2.0270380735e-03 1.9726504856e+00 -3.4167308666e+00 1.9726504856e+00 3.4167308666e+00 
36900 3.4522753712e+00 2.0009232316e-03 1.9725991073e+00 -3.4166418767e+00 1.9725991073e+00 3.4166418767e+00 
37000 3.4522753619e+00 1.9751478086e-03 1.9725483895e+00 -3.4165540311e+00 1.9725483895e+00 3.4165540311e+00 
37100 3.4522753537e+00 1.9497072764e-03 1.9724983239e+00 -3.4164673148e+00 1.9724983239e+00 3.4164673148e+00 
37200 3.4522753465e+00 1.9245971668e-03 1.9724489018e+00 -3.4163817132e+00 1.9724489018e+00 3.4163817132e+00 
37300 3.4522753402e+00 1.8998130714e-03 1.9724001150e+00 -3.4162972120e+00 1.9724001150e+00 3.4162972120e+00 
37400 3.4522753348e+00 1.8753506406e-03 1.9723519553e+00 -3.4162137969e+00 1.9723519553e+00 3.4162137969e+00 
37500 3.4522753303e+00 1.8512055834e-03 1.9723044145e+00 -3.4161314539e+00 1.9723044145e+00 3.4161314539e+00 
37600 3.4522753267e+00 1.8273736666e-03 1.9722574846e+00 -3.4160501690e+00 1.9722574846e+00 3.4160501690e+00 
37700 3.4522753239e+00 1.8038507139e-03 1.9722111579e+00 -3.4159699287e+00 1.9722111579e+00 3.4159699287e+00 
37800 3.4522753218e+00 1.7806326058e-03 1.9721654264e+00 -3.4158907194e+00 1.9721654264e+00 3.4158907194e+00 
37900 3.4522753205e+00 1.7577152785e-03 1.9721202824e+00 -3.4158125278e+00 1.9721202824e+00 3.4158125278e+00 
38000 3.4522753200e+00 1.7350947238e-03 1.9720757185e+00 -3.4157353408e+00 1.9720757185e+00 3.4157353408e+00 
38100 3.4522753201e+00 1.7127669879e-03 1.9720317271e+00 -3.4156591454e+00 1.9720317271e+00 3.4156591454e+00 
38200 3.4522753209e+00 1.6907281711e-03 1.9719883008e+00 -3.4155839289e+00 1.9719883008e+00 3.4155839289e+00 
38300 3.4522753224e+00 1.6689744272e-03 1.9719454323e+00 -3.4155096785e+00 1.9719454323e+00 3.4155096785e+00 
38400 3.4522753244e+00 1.6475019626e-03 1.9719031145e+00 -3.4154363819e+00 1.9719031145e+00 3.4154363819e+00 
38500 3.4522753271e+00 1.6263070359e-03 1.9718613402e+00 -3.4153640268e+00 1.9718613402e+00 3.4153640268e+00 
38600 3.4522753303e+00 1.6053859573e-03 1.9718201025e+00 -3.4152926009e+00 1.9718201025e+00 3.4152926009e+00 
38700 3.4522753341e+00 1.5847350879e-03 1.9717793944e+00 -3.4152220925e+00 1.9717793944e+00 3.4152220925e+00 
38800 3.4522753384e+00 1.5643508387e-03 1.9717392092e+00 -3.4151524895e+00 1.9717392092e+00 3.4151524895e+00 
38900 3.4522753431e+00 1.5442296708e-03 1.9716995400e+00 -3.4150837805e+00 1.9716995400e+00 3.4150837805e+00 
39000 3.4522753484e+00 1.5243680939e-03 1.9716603803e+00 -3.4150159539e+00 1.9716603803e+00 3.4150159539e+00 
39100 3.4522753541e+00 1.5047626662e-03 1.9716217234e+00 -3.4149489983e+00 1.9716217234e+00 3.4149489983e+00 
39200 3.4522753602e+00 1.4854099936e-03 1.9715835630e+00 -3.4148829025e+00 1.9715835630e+00 3.4148829025e+00 
39300 3.4522753668e+00 1.4663067292e-03 1.9715458926e+00 -3.4148176555e+00 1.9715458926e+00 3.4148176555e+00 
39400 3.4522753737e+00 1.4474495724e-03 1.9715087060e+00 -3.4147532464e+00 1.9715087060e+00 3.4147532464e+00 
39500 3.4522753811e+00 1.4288352686e-03 1.9714719970e+00 -3.4146896644e+00 1.9714719970e+00 3.4146896644e+00 
39600 3.4522753887e+00 1.4104606085e-03 1.9714357593e+00 -3.4146268990e+00 1.9714357593e+00 3.4146268990e+00 
39700 3.4522753968e+00 1.3923224273e-03 1.9713999870e+00 -3.4145649395e+00 1.9713999870e+00 3.4145649395e+00 
39800 3.4522754051e+00 1.3744176042e-03 1.9713646741e+00 -3.4145037757e+00 1.9713646741e+00 3.4145037757e+00 
39900 3.4522754138e+00 1.3567430622e-03 1.9713298146e+00 -3.4144433974e+00 1.9713298146e+00 3.4144433974e+00 
40000 3.4522754227e+00 1.3392957666e-03 1.9712954028e+00 -3.4143837944e+00 1.9712954028e+00 3.4143837944e+00 
40100 3.4522754320e+00 1.3220727253e-03 1.9712614330e+00 -3.4143249569e+00 1.9712614330e+00 3.4143249569e+00 
40200 3.4522754415e+00 1.3050709878e-03 1.9712278994e+00 -3.4142668751e+00 1.9712278994e+00 3.4142668751e+00 
40300 3.4522754512e+00 1.2882876446e-03 1.9711947965e+00 -3.4142095392e+00 1.9711947965e+00 3.4142095392e+00 
40400 3.4522754612e+00 1.2717198267e-03 1.9711621188e+00 -3.4141529397e+00 1.9711621188e+00 3.4141529397e+00 
40500 3.4522754714e+00 1.2553647051e-03 1.9711298607e+00 -3.4140970671e+00 1.9711298607e+00 3.4140970671e+00 
40600 3.4522754818e+00 1.2392194899e-03 1.9710980170e+00 -3.4140419122e+00 1.9710980170e+00 3.4140419122e+00 
40700 3.4522754924e+00 1.2232814304e-03 1.9710665824e+00 -3.4139874657e+00 1.9710665824e+00 3.4139874657e+00 
40800 3.4522755032e+00 1.2075478137e-03 1.9710355515e+00 -3.4139337187e+00 1.9710355515e+00 3.4139337187e+00 
40900 3.4522755142e+00 1.1920159648e-03 1.9710049192e+00 -3.4138806621e+00 1.9710049192e+00 3.4138806621e+00 
41000 3.4522755254e+00 1.1766832458e-03 1.9709746805e+00 -3.4138282871e+00 1.9709746805e+00 3.4138282871e+00 
41100 3.4522755367e+00 1.1615470554e-03 1.9709448303e+00 -3.4137765850e+00 1.9709448303e+00 3.4137765850e+00 
41200 3.4522755481e+00 1.1466048282e-03 1.9709153636e+00 -3.4137255472e+00 1.9709153636e+00 3.4137255472e+00 
41300 3.4522755597e+00 1.1318540344e-03 1.9708862756e+00 -3.4136751653e+00 1.9708862756e+00 3.4136751653e+00 
41400 3.4522755714e+00 1.1172921793e-03 1.9708575613e+00 -3.4136254307e+00 1.9708575613e+00 3.4136254307e+00 
41500 3.4522755832e+00 1.1029168026e-03 1.9708292161e+00 -3.4135763352e+00 1.9708292161e+00 3.4135763352e+00 
41600 3.4522755951e+00 1.0887254780e-03 1.9708012351e+00 -3.4135278708e+00 1.9708012351e+00 3.4135278708e+00 
41700 3.4522756071e+00 1.0747158125e-03 1.9707736138e+00 -3.4134800292e+00 1.9707736138e+00 3.4134800292e+00 
41800 3.4522756192e+00 1.0608854464e-03 1.9707463475e+00 -3.4134328027e+00 1.9707463475e+00 3.4134328027e+00 
41900 3.4522756314e+00 1.0472320521e-03 1.9707194317e+00 -3.4133861832e+00 1.9707194317e+00 3.4133861832e+00 
42000 3.4522756436e+00 1.0337533343e-03 1.9706928620e+00 -3.4133401631e+00 1.9706928620e+00 3.4133401631e+00 
42100 3.4522756559e+00 1.0204470291e-03 1.9706666339e+00 -3.4132947346e+00 1.9706666339e+00 3.4132947346e+00 
42200 3.4522756683e+00 1.0073109035e-03 1.9706407430e+00 -3.4132498904e+00 1.9706407430e+00 3.4132498904e+00 
42300 3.4522756807e+00 9.9434275530e-04 1.9706151851e+00 -3.4132056228e+00 1.9706151851e+00 3.4132056228e+00 
42400 3.4522756932e+00 9.8154041235e-04 1.9705899559e+00 -3.4131619245e+00 1.9705899559e+00 3.4131619245e+00 
42500 3.4522757057e+00 9.6890173212e-04 1.9705650512e+00 -3.4131187884e+00 1.9705650512e+00 3.4131187884e+00 
42600 3.4522757182e+00 9.5642460132e-04 1.9705404669e+00 -3.4130762071e+00 1.9705404669e+00 3.4130762071e+00 
42700 3.4522757308e+00 9.4410693544e-04 1.9705161989e+00 -3.4130341736e+00 1.9705161989e+00 3.4130341736e+00 
42800 3.4522757434e+00 9.3194667834e-04 1.9704922431e+00 -3.4129926810e+00 1.9704922431e+00 3.4129926810e+00 
42900 3.4522757560e+00 9.1994180175e-04 1.9704685956e+00 -3.4129517223e+00 1.9704685956e+00 3.4129517223e+00 
43000 3.4522757686e+00 9.0809030494e-04 1.9704452524e+00 -3.4129112907e+00 1.9704452524e+00 3.4129112907e+00 
43100 3.4522757812e+00 8.9639021426e-04 1.9704222097e+00 -3.4128713796e+00 1.9704222097e+00 3.4128713796e+00 
43200 3.4522757938e+00 8.8483958271e-04 1.9703994636e+00 -3.4128319822e+00 1.9703994636e+00 3.4128319822e+00 
43300 3.4522758064e+00 8.7343648960e-04 1.9703770103e+00 -3.4127930920e+00 1.9703770103e+00 3.4127930920e+00 
43400 3.4522758190e+00 8.6217904009e-04 1.9703548462e+00 -3.4127547025e+00 1.9703548462e+00 3.4127547025e+00 
43500 3.4522758316e+00 8.5106536485e-04 1.9703329674e+00 -3.4127168074e+00 1.9703329674e+00 3.4127168074e+00 
43600 3.4522758441e+00 8.4009361964e-04 1.9703113705e+00 -3.4126794004e+00 1.9703113705e+00 3.4126794004e+00 
43700 3.4522758567e+00 8.2926198497e-04 1.9702900517e+00 -3.4126424752e+00 1.9702900517e+00 3.4126424752e+00 
43800 3.4522758692e+00 8.1856866569e-04 1.9702690076e+00 -3.4126060258e+00 1.9702690076e+00 3.4126060258e+00 
43900 3.4522758817e+00 8.0801189065e-04 1.9702482346e+00 -3.4125700459e+00 1.9702482346e+00 3.4125700459e+00 
44000 3.4522758941e+00 7.9758991235e-04 1.9702277293e+00 -3.4125345297e+00 1.9702277293e+00 3.4125345297e+00 
44100 3.4522759066e+00 7.8730100653e-04 1.9702074883e+00 -3.4124994712e+00 1.9702074883e+00 3.4124994712e+00 
44200 3.4522759189e+00 7.7714347192e-04 1.9701875082e+00 -3.4124648646e+00 1.9701875082e+00 3.4124648646e+00 
44300 3.4522759313e+00 7.6711562979e-04 1.9701677856e+00 -3.4124307042e+00 1.9701677856e+00 3.4124307042e+00 
44400 3.4522759435e+00 7.5721582370e-04 1.9701483174e+00 -3.4123969842e+00 1.9701483174e+00 3.4123969842e+00 
44500 3.4522759558e+00 7.4744241912e-04 1.9701291002e+00 -3.4123636990e+00 1.9701291002e+00 3.4123636990e+00 
44600 3.4522759680e+00 7.3779380313e-04 1.9701101308e+00 -3.4123308431e+00 1.9701101308e+00 3.4123308431e+00 
44700 3.4522759801e+00 7.2826838407e-04 1.9700914062e+00 -3.4122984111e+00 1.9700914062e+00 3.4122984111e+00 
44800 3.4522759922e+00 7.1886459128e-04 1.9700729231e+00 -3.4122663974e+00 1.9700729231e+00 3.4122663974e+00 
44900 3.4522760042e+00 7.0958087472e-04 1.9700546785e+00 -3.4122347969e+00 1.9700546785e+00 3.4122347969e+00 
45000 3.4522760162e+00 7.0041570474e-04 1.9700366694e+00 -3.4122036041e+00 1.9700366694e+00 3.4122036041e+00 
45100 3.4522760281e+00 6.9136757171e-04 1.9700188927e+00 -3.4121728140e+00 1.9700188927e+00 3.4121728140e+00 
45200 3.4522760399e+00 6.8243498580e-04 1.9700013455e+00 -3.4121424214e+00 1.9700013455e+00 3.4121424214e+00 
45300 3.4522760517e+00 6.7361647662e-04 1.9699840248e+00 -3.4121124211e+00 1.9699840248e+00 3.4121124211e+00 
45400 3.4522760634e+00 6.6491059298e-04 1.9699669279e+00 -3.4120828083e+00 1.9699669279e+00 3.4120828083e+00 
45500 3.4522760750e+00 6.5631590262e-04 1.9699500517e+00 -3.4120535779e+00 1.9699500517e+00 3.4120535779e+00 
45600 3.4522760866e+00 6.4783099190e-04 1.9699333935e+00 -3.4120247251e+00 1.9699333935e+00 3.4120247251e+00 
45700 3.4522760981e+00 6.3945446556e-04 1.9699169506e+00 -3.4119962451e+00 1.9699169506e+00 3.4119962451e+00 
45800 3.4522761095e+00 6.3118494642e-04 1.9699007201e+00 -3.4119681331e+00 1.9699007201e+00 3.4119681331e+00 
45900 3.4522761208e+00 6.2302107517e-04 1.9698846994e+00 -3.4119403844e+00 1.9698846994e+00 3.4119403844e+00 
46000 3.4522761321e+00 6.1496151009e-04 1.9698688858e+00 -3.4119129944e+00 1.9698688858e+00 3.4119129944e+00 
46100 3.4522761433e+00 6.0700492679e-04 1.9698532766e+00 -3.4118859585e+00 1.9698532766e+00 3.4118859585e+00 
46200 3.4522761544e+00 5.9915001796e-04 1.9698378693e+00 -3.4118592722e+00 1.9698378693e+00 3.4118592722e+00 
46300 3.4522761654e+00 5.9139549316e-04 1.9698226612e+00 -3.4118329311e+00 1.9698226612e+00 3.4118329311e+00 
46400 3.4522761764e+00 5.8374007854e-04 1.9698076498e+00 -3.4118069306e+00 1.9698076498e+00 3.4118069306e+00 
46500 3.4522761872e+00 5.7618251666e-04 1.9697928326e+00 -3.4117812665e+00 1.9697928326e+00 3.4117812665e+00 
46600 3.4522761980e+00 5.6872156619e-04 1.9697782072e+00 -3.4117559345e+00 1.9697782072e+00 3.4117559345e+00 
46700 3.4522762087e+00 5.6135600174e-04 1.9697637710e+00 -3.4117309303e+00 1.9697637710e+00 3.4117309303e+00 
46800 3.4522762193e+00 5.5408461362e-04 1.9697495217e+00 -3.4117062498e+00 1.9697495217e+00 3.4117062498e+00 
46900 3.4522762299e+00 5.4690620761e-04 1.9697354569e+00 -3.4116818888e+00 1.9697354569e+00 3.4116818888e+00 
47000 3.4522762403e+00 5.3981960475e-04 1.9697215742e+00 -3.4116578432e+00 1.9697215742e+00 3.4116578432e+00 
47100 3.4522762507e+00 5.3282364116e-04 1.9697078713e+00 -3.4116341091e+00 1.9697078713e+00 3.4116341091e+00 
47200 3.4522762610e+00 5.2591716778e-04 1.9696943458e+00 -3.4116106823e+00 1.9696943458e+00 3.4116106823e+00 
47300 3.4522762711e+00 5.1909905021e-04 1.9696809956e+00 -3.4115875591e+00 1.9696809956e+00 3.4115875591e+00 
47400 3.4522762813e+00 5.1236816847e-04 1.9696678184e+00 -3.4115647355e+00 1.9696678184e+00 3.4115647355e+00 
47500 3.4522762913e+00 5.0572341686e-04 1.9696548119e+00 -3.4115422077e+00 1.9696548119e+00 3.4115422077e+00 
47600 3.4522763012e+00 4.9916370369e-04 1.9696419741e+00 -3.4115199718e+00 1.9696419741e+00 3.4115199718e+00 
47700 3.4522763111e+00 4.9268795115e-04 1.9696293027e+00 -3.4114980243e+00 1.9696293027e+00 3.4114980243e+00 
47800 3.4522763208e+00 4.8629509513e-04 1.9696167956e+00 -3.4114763613e+00 1.9696167956e+00 3.4114763613e+00 
47900 3.4522763305e+00 4.7998408495e-04 1.9696044507e+00 -3.4114549793e+00 1.9696044507e+00 3.4114549793e+00 
48000 3.4522763401e+00 4.7375388329e-04 1.9695922659e+00 -3.4114338747e+00 1.9695922659e+00 3.4114338747e+00 
48100 3.4522763496e+00 4.6760346593e-04 1.9695802392e+00 -3.4114130439e+00 1.9695802392e+00 3.4114130439e+00 
48200 3.4522763590e+00 4.6153182162e-04 1.9695683686e+00 -3.4113924833e+00 1.9695683686e+00 3.4113924833e+00 
48300 3.4522763683e+00 4.5553795187e-04 1.9695566520e+00 -3.4113721897e+00 1.9695566520e+00 3.4113721897e+00 
48400 3.4522763775e+00 4.4962087083e-04 1.9695450875e+00 -3.4113521594e+00 1.9695450875e+00 3.4113521594e+00 
48500 3.4522763867e+00 4.4377960508e-04 1.9695336732e+00 -3.4113323892e+00 1.9695336732e+00 3.4113323892e+00 
48600 3.4522763957e+00 4.3801319347e-04 1.9695224071e+00 -3.4113128758e+00 1.9695224071e+00 3.4113128758e+00 
48700 3.4522764047e+00 4.3232068699e-04 1.9695112873e+00 -3.4112936158e+00 1.9695112873e+00 3.4112936158e+00 
48800 3.4522764136e+00 4.2670114858e-04 1.9695003120e+00 -3.4112746060e+00 1.9695003120e+00 3.4112746060e+00 
48900 3.4522764224e+00 4.2115365298e-04 1.9694894793e+00 -3.4112558431e+00 1.9694894793e+00 3.4112558431e+00 
49000 3.4522764311e+00 4.1567728659e-04 1.9694787874e+00 -3.4112373242e+00 1.9694787874e+00 3.4112373242e+00 
49100 3.4522764397e+00 4.1027114730e-04 1.9694682344e+00 -3.4112190459e+00 1.9694682344e+00 3.4112190459e+00 
49200 3.4522764483e+00 4.0493434434e-04 1.9694578186e+00 -3.4112010052e+00 1.9694578186e+00 3.4112010052e+00 
49300 3.4522764567e+00 3.9966599817e-04 1.9694475383e+00 -3.4111831992e+00 1.9694475383e+00 3.4111831992e+00 
49400 3.4522764651e+00 3.9446524029e-04 1.9694373916e+00 -3.4111656247e+00 1.9694373916e+00 3.4111656247e+00 
49500 3.4522764734e+00 3.8933121310e-04 1.9694273770e+00 -3.4111482788e+00 1.9694273770e+00 3.4111482788e+00 
49600 3.4522764816e+00 3.8426306980e-04 1.9694174926e+00 -3.4111311585e+00 1.9694174926e+00 3.4111311585e+00 
49700 3.4522764897e+00 3.7925997422e-04 1.9694077369e+00 -3.4111142611e+00 1.9694077369e+00 3.4111142611e+00 
49800 3.4522764977e+00 3.7432110069e-04 1.9693981081e+00 -3.4110975836e+00 1.9693981081e+00 3.4110975836e+00 
49900 3.4522765057e+00 3.6944563389e-04 1.9693886047e+00 -3.4110811231e+00 1.9693886047e+00 3.4110811231e+00 
50000 3.4522765136e+00 3.6463276877e-04 1.9693792250e+00 -3.4110648770e+00 1.9693792250e+00 3.4110648770e+00 
50100 3.4522765213e+00 3.5988171035e-04 1.9693699674e+00 -3.4110488425e+00 1.9693699674e+00 3.4110488425e+00 
50200 3.4522765290e+00 3.5519167364e-04 1.9693608305e+00 -3.4110330168e+00 1.9693608305e+00 3.4110330168e+00 
50300 3.4522765366e+00 3.5056188351e-04 1.9693518125e+00 -3.4110173973e+00 1.9693518125e+00 3.4110173973e+00 
50400 3.4522765442e+00 3.4599157454e-04 1.9693429121e+00 -3.4110019813e+00 1.9693429121e+00 3.4110019813e+00 
50500 3.4522765516e+00 3.4147999092e-04 1.9693341276e+00 -3.4109867662e+00 1.9693341276e+00 3.4109867662e+00 
50600 3.4522765590e+00 3.3702638634e-04 1.9693254577e+00 -3.4109717494e+00 1.9693254577e+00 3.4109717494e+00 
50700 3.4522765663e+00 3.3263002382e-04 1.9693169008e+00 -3.4109569284e+00 1.9693169008e+00 3.4109569284e+00 
50800 3.4522765735e+00 3.2829017565e-04 1.9693084555e+00 -3.4109423007e+00 1.9693084555e+00 3.4109423007e+00 
50900 3.4522765807e+00 3.2400612324e-04 1.9693001204e+00 -3.4109278638e+00 1.9693001204e+00 3.4109278638e+00 
51000 3.4522765877e+00 3.1977715702e-04 1.9692918939e+00 -3.4109136152e+00 1.9692918939e+00 3.4109136152e+00 
51100 3.4522765947e+00 3.1560257632e-04 1.9692837749e+00 -3.4108995526e+00 1.9692837749e+00 3.4108995526e+00 
51200 3.4522766016e+00 3.1148168928e-04 1.9692757617e+00 -3.4108856734e+00 1.9692757617e+00 3.4108856734e+00 
51300 3.4522766084e+00 3.0741381270e-04 1.9692678532e+00 -3.4108719755e+00 1.9692678532e+00 3.4108719755e+00 
51400 3.4522766152e+00 3.0339827196e-04 1.9692600479e+00 -3.4108584563e+00 1.9692600479e+00 3.4108584563e+00 
51500 3.4522766218e+00 2.9943440091e-04 1.9692523446e+00 -3.4108451137e+00 1.9692523446e+00 3.4108451137e+00 
51600 3.4522766284e+00 2.9552154178e-04 1.9692447418e+00 -3.4108319454e+00 1.9692447418e+00 3.4108319454e+00 
51700 3.4522766349e+00 2.9165904504e-04 1.9692372384e+00 -3.4108189491e+00 1.9692372384e+00 3.4108189491e+00 
51800 3.4522766414e+00 2.8784626932e-04 1.9692298330e+00 -3.4108061226e+00 1.9692298330e+00 3.4108061226e+00 
51900 3.4522766478e+00 2.8408258131e-04 1.9692225244e+00 -3.4107934637e+00 1.9692225244e+00 3.4107934637e+00 
52000 3.4522766541e+00 2.8036735566e-04 1.9692153114e+00 -3.4107809704e+00 1.9692153114e+00 3.4107809704e+00 
52100 3.4522766603e+00 2.7669997487e-04 1.9692081926e+00 -3.4107686403e+00 1.9692081926e+00 3.4107686403e+00 
52200 3.4522766665e+00 2.7307982922e-04 1.9692011670e+00 -3.4107564715e+00 1.9692011670e+00 3.4107564715e+00 
52300 3.4522766725e+00 2.6950631663e-04 1.9691942332e+00 -3.4107444619e+00 1.9691942332e+00 3.4107444619e+00 
52400 3.4522766786e+00 2.6597884261e-04 1.9691873901e+00 -3.4107326093e+00 1.9691873901e+00 3.4107326093e+00 
52500 3.4522766845e+00 2.6249682014e-04 1.9691806366e+00 -3.4107209119e+00 1.9691806366e+00 3.4107209119e+00 
52600 3.4522766904e+00 2.5905966959e-04 1.9691739715e+00 -3.4107093676e+00 1.9691739715e+00 3.4107093676e+00 
52700 3.4522766962e+00 2.5566681863e-04 1.9691673936e+00 -3.4106979744e+00 1.9691673936e+00 3.4106979744e+00 
52800 3.4522767019e+00 2.5231770211e-04 1.9691609019e+00 -3.4106867303e+00 1.9691609019e+00 3.4106867303e+00 
52900 3.4522767076e+00 2.4901176204e-04 1.9691544952e+00 -3.4106756336e+00 1.9691544952e+00 3.4106756336e+00 
53000 3.4522767132e+00 2.4574844741e-04 1.9691481724e+00 -3.4106646821e+00 1.9691481724e+00 3.4106646821e+00 
53100 3.4522767187e+00 2.4252721420e-04 1.9691419324e+00 -3.4106538742e+00 1.9691419324e+00 3.4106538742e+00 
53200 3.4522767242e+00 2.3934752521e-04 1.9691357742e+00 -3.4106432079e+00 1.9691357742e+00 3.4106432079e+00 
53300 3.4522767296e+00 2.3620885002e-04 1.9691296967e+00 -3.4106326814e+00 1.9691296967e+00 3.4106326814e+00 
53400 3.4522767350e+00 2.3311066491e-04 1.9691236989e+00 -3.4106222929e+00 1.9691236989e+00 3.4106222929e+00 
53500 3.4522767402e+00 2.3005245277e-04 1.9691177798e+00 -3.4106120407e+00 1.9691177798e+00 3.4106120407e+00 
53600 3.4522767455e+00 2.2703370301e-04 1.9691119383e+00 -3.4106019229e+00 1.9691119383e+00 3.4106019229e+00 
53700 3.4522767506e+00 2.2405391147e-04 1.9691061734e+00 -3.4105919378e+00 1.9691061734e+00 3.4105919378e+00 
53800 3.4522767557e+00 2.2111258038e-04 1.9691004842e+00 -3.4105820838e+00 1.9691004842e+00 3.4105820838e+00 
53900 3.4522767607e+00 2.1820921825e-04 1.9690948696e+00 -3.4105723591e+00 1.9690948696e+00 3.4105723591e+00 
54000 3.4522767657e+00 2.1534333979e-04 1.9690893288e+00 -3.4105627621e+00 1.9690893288e+00 3.4105627621e+00 
54100 3.4522767706e+00 2.1251446587e-04 1.9690838607e+00 -3.4105532911e+00 1.9690838607e+00 3.4105532911e+00 
54200 3.4522767755e+00 2.0972212338e-04 1.9690784644e+00 -3.4105439444e+00 1.9690784644e+00 3.4105439444e+00 
54300 3.4522767803e+00 2.0696584523e-04 1.9690731390e+00 -3.4105347206e+00 1.9690731390e+00 3.4105347206e+00 
54400 3.4522767850e+00 2.0424517022e-04 1.9690678836e+00 -3.4105256180e+00 1.9690678836e+00 3.4105256180e+00 
54500 3.4522767897e+00 2.0155964300e-04 1.9690626973e+00 -3.4105166350e+00 1.9690626973e+00 3.4105166350e+00 
54600 3.4522767943e+00 1.9890881397e-04 1.9690575791e+00 -3.4105077700e+00 1.9690575791e+00 3.4105077700e+00 
54700 3.4522767988e+00 1.9629223924e-04 1.9690525282e+00 -3.4104990217e+00 1.9690525282e+00 3.4104990217e+00 
54800 3.4522768033e+00 1.9370948053e-04 1.9690475438e+00 -3.4104903884e+00 1.9690475438e+00 3.4104903884e+00 
54900 3.4522768078e+00 1.9116010513e-04 1.9690426250e+00 -3.4104818687e+00 1.9690426250e+00 3.4104818687e+00 
55000 3.4522768122e+00 1.8864368579e-04 1.9690377708e+00 -3.4104734611e+00 1.9690377708e+00 3.4104734611e+00 
55100 3.4522768165e+00 1.8615980071e-04 1.9690329806e+00 -3.4104651641e+00 1.9690329806e+00 3.4104651641e+00 
55200 3.4522768208e+00 1.8370803342e-04 1.9690282534e+00 -3.4104569764e+00 1.9690282534e+00 3.4104569764e+00 
55300 3.4522768251e+00 1.8128797274e-04 1.9690235884e+00 -3.4104488965e+00 1.9690235884e+00 3.4104488965e+00 
55400 3.4522768292e+00 1.7889921272e-04 1.9690189849e+00 -3.4104409230e+00 1.9690189849e+00 3.4104409230e+00 
55500 3.4522768334e+00 1.7654135253e-04 1.9690144421e+00 -3.4104330545e+00 1.9690144421e+00 3.4104330545e+00 
55600 3.4522768374e+00 1.7421399648e-04 1.9690099591e+00 -3.4104252898e+00 1.9690099591e+00 3.4104252898e+00 
55700 3.4522768415e+00 1.7191675386e-04 1.9690055352e+00 -3.4104176274e+00 1.9690055352e+00 3.4104176274e+00 
55800 3.4522768454e+00 1.6964923896e-04 1.9690011696e+00 -3.4104100660e+00 1.9690011696e+00 3.4104100660e+00 
55900 3.4522768494e+00 1.6741107096e-04 1.9689968616e+00 -3.4104026043e+00 1.9689968616e+00 3.4104026043e+00 
56000 3.4522768532e+00 1.6520187388e-04 1.9689926105e+00 -3.4103952411e+00 1.9689926105e+00 3.4103952411e+00 
56100 3.4522768571e+00 1.6302127653e-04 1.9689884154e+00 -3.4103879750e+00 1.9689884154e+00 3.4103879750e+00 
56200 3.4522768609e+00 1.6086891243e-04 1.9689842757e+00 -3.4103808047e+00 1.9689842757e+00 3.4103808047e+00 
56300 3.4522768646e+00 1.5874441976e-04 1.9689801906e+00 -3.4103737292e+00 1.9689801906e+00 3.4103737292e+00 
56400 3.4522768683e+00 1.5664744135e-04 1.9689761595e+00 -3.4103667471e+00 1.9689761595e+00 3.4103667471e+00 
56500 3.4522768719e+00 1.5457762450e-04 1.9689721816e+00 -3.4103598572e+00 1.9689721816e+00 3.4103598572e+00 
56600 3.4522768755e+00 1.5253462108e-04 1.9689682562e+00 -3.4103530583e+00 1.9689682562e+00 3.4103530583e+00 
56700 3.4522768791e+00 1.5051808735e-04 1.9689643828e+00 -3.4103463492e+00 1.9689643828e+00 3.4103463492e+00 
56800 3.4522768826e+00 1.4852768395e-04 1.9689605605e+00 -3.4103397289e+00 1.9689605605e+00 3.4103397289e+00 
56900 3.4522768860e+00 1.4656307587e-04 1.9689567888e+00 -3.4103331961e+00 1.9689567888e+00 3.4103331961e+00 
57000 3.4522768894e+00 1.4462393234e-04 1.9689530669e+00 -3.4103267496e+00 1.9689530669e+00 3.4103267496e+00 
57100 3.4522768928e+00 1.4270992684e-04 1.9689493943e+00 -3.4103203885e+00 1.9689493943e+00 3.4103203885e+00 
57200 3.4522768961e+00 1.4082073697e-04 1.9689457703e+00 -3.4103141115e+00 1.9689457703e+00 3.4103141115e+00 
57300 3.4522768994e+00 1.3895604449e-04 1.9689421943e+00 -3.4103079176e+00 1.9689421943e+00 3.4103079176e+00 
57400 3.4522769027e+00 1.3711553520e-04 1.9689386656e+00 -3.4103018058e+00 1.9689386656e+00 3.4103018058e+00 
57500 3.4522769059e+00 1.3529889889e-04 1.9689351836e+00 -3.4102957748e+00 1.9689351836e+00 3.4102957748e+00 
57600 3.4522769090e+00 1.3350582933e-04 1.9689317478e+00 -3.4102898238e+00 1.9689317478e+00 3.4102898238e+00 
57700 3.4522769122e+00 1.3173602421e-04 1.9689283575e+00 -3.4102839516e+00 1.9689283575e+00 3.4102839516e+00 
57800 3.4522769152e+00 1.2998918504e-04 1.9689250121e+00 -3.4102781572e+00 1.9689250121e+00 3.4102781572e+00 
57900 3.4522769183e+00 1.2826501719e-04 1.9689217111e+00 -3.4102724397e+00 1.9689217111e+00 3.4102724397e+00 
58000 3.4522769213e+00 1.2656322975e-04 1.9689184538e+00 -3.4102667980e+00 1.9689184538e+00 3.4102667980e+00 
58100 3.4522769243e+00 1.2488353555e-04 1.9689152398e+00 -3.4102612311e+00 1.9689152398e+00 3.4102612311e+00 
58200 3.4522769272e+00 1.2322565108e-04 1.9689120684e+00 -3.4102557381e+00 1.9689120684e+00 3.4102557381e+00 
58300 3.4522769301e+00 1.2158929646e-04 1.9689089391e+00 -3.4102503181e+00 1.9689089391e+00 3.4102503181e+00 
58400 3.4522769329e+00 1.1997419536e-04 1.9689058514e+00 -3.4102449700e+00 1.9689058514e+00 3.4102449700e+00 
58500 3.4522769357e+00 1.1838007503e-04 1.9689028047e+00 -3.4102396929e+00 1.9689028047e+00 3.4102396929e+00 
58600 3.4522769385e+00 1.1680666615e-04 1.9688997984e+00 -3.4102344859e+00 1.9688997984e+00 3.4102344859e+00 
58700 3.4522769413e+00 1.1525370288e-04 1.9688968321e+00 -3.4102293481e+00 1.9688968321e+00 3.4102293481e+00 
58800 3.4522769440e+00 1.1372092277e-04 1.9688939053e+00 -3.4102242787e+00 1.9688939053e+00 3.4102242787e+00 
58900 3.4522769466e+00 1.1220806672e-04 1.9688910174e+00 -3.4102192766e+00 1.9688910174e+00 3.4102192766e+00 
59000 3.4522769493e+00 1.1071487894e-04 1.9688881678e+00 -3.4102143411e+00 1.9688881678e+00 3.4102143411e+00 
59100 3.4522769519e+00 1.0924110691e-04 1.9688853562e+00 -3.4102094712e+00 1.9688853562e+00 3.4102094712e+00 
59200 3.4522769545e+00 1.0778650136e-04 1.9688825820e+00 -3.4102046662e+00 1.9688825820e+00 3.4102046662e+00 
59300 3.4522769570e+00 1.0635081618e-04 1.9688798448e+00 -3.4101999252e+00 1.9688798448e+00 3.4101999252e+00 
59400 3.4522769595e+00 1.0493380843e-04 1.9688771440e+00 -3.4101952472e+00 1.9688771440e+00 3.4101952472e+00 
59500 3.4522769620e+00 1.0353523825e-04 1.9688744792e+00 -3.4101906317e+00 1.9688744792e+00 3.4101906317e+00 
59600 3.4522769644e+00 1.0215486887e-04 1.9688718499e+00 -3.4101860776e+00 1.9688718499e+00 3.4101860776e+00 
59700 3.4522769668e+00 1.0079246655e-04 1.9688692556e+00 -3.4101815842e+00 1.9688692556e+00 3.4101815842e+00 
59800 3.4522769692e+00 9.9447800520e-05 1.9688666960e+00 -3.4101771508e+00 1.9688666960e+00 3.4101771508e+00 
59900 3.4522769715e+00 9.8120642983e-05 1.9688641705e+00 -3.4101727765e+00 1.9688641705e+00 3.4101727765e+00 
60000 3.4522769739e+00 9.6810769042e-05 1.9688616787e+00 -3.4101684605e+00 1.9688616787e+00 3.4101684605e+00 
60100 3.4522769761e+00 9.5517956684e-05 1.9688592201e+00 -3.4101642022e+00 1.9688592201e+00 3.4101642022e+00 
60200 3.4522769784e+00 9.4241986733e-05 1.9688567944e+00 -3.4101600007e+00 1.9688567944e+00 3.4101600007e+00 
60300 3.4522769806e+00 9.2982642817e-05 1.9688544011e+00 -3.4101558554e+00 1.9688544011e+00 3.4101558554e+00 
60400 3.4522769828e+00 9.1739711333e-05 1.9688520397e+00 -3.4101517654e+00 1.9688520397e+00 3.4101517654e+00 
60500 3.4522769850e+00 9.0512981408e-05 1.9688497100e+00 -3.4101477301e+00 1.9688497100e+00 3.4101477301e+00 
60600 3.4522769871e+00 8.9302244872e-05 1.9688474113e+00 -3.4101437488e+00 1.9688474113e+00 3.4101437488e+00 
60700 3.4522769892e+00 8.8107296214e-05 1.9688451435e+00 -3.4101398207e+00 1.9688451435e+00 3.4101398207e+00 
60800 3.4522769913e+00 8.6927932548e-05 1.9688429059e+00 -3.4101359452e+00 1.9688429059e+00 3.4101359452e+00 
60900 3.4522769934e+00 8.5763953593e-05 1.9688406983e+00 -3.4101321215e+00 1.9688406983e+00 3.4101321215e+00 
61000 3.4522769954e+00 8.4615161623e-05 1.9688385203e+00 -3.4101283491e+00 1.9688385203e+00 3.4101283491e+00 
61100 3.4522769974e+00 8.3481361445e-05 1.9688363714e+00 -3.4101246271e+00 1.9688363714e+00 3.4101246271e+00 
61200 3.4522769994e+00 8.2362360358e-05 1.9688342514e+00 -3.4101209551e+00 1.9688342514e+00 3.4101209551e+00 
61300 3.4522770013e+00 8.1257968134e-05 1.9688321597e+00 -3.4101173322e+00 1.9688321597e+00 3.4101173322e+00 
61400 3.4522770033e+00 8.0167996966e-05 1.9688300961e+00 -3.4101137579e+00 1.9688300961e+00 3.4101137579e+00 
61500 3.4522770052e+00 7.9092261463e-05 1.9688280602e+00 -3.4101102316e+00 1.9688280602e+00 3.4101102316e+00 
61600 3.4522770070e+00 7.8030578595e-05 1.9688260516e+00 -3.4101067526e+00 1.9688260516e+00 3.4101067526e+00 
61700 3.4522770089e+00 7.6982767677e-05 1.9688240699e+00 -3.4101033203e+00 1.9688240699e+00 3.4101033203e+00 
61800 3.4522770107e+00 7.5948650335e-05 1.9688221149e+00 -3.4100999340e+00 1.9688221149e+00 3.4100999340e+00 
61900 3.4522770125e+00 7.4928050474e-05 1.9688201861e+00 -3.4100965933e+00 1.9688201861e+00 3.4100965933e+00 
62000 3.4522770143e+00 7.3920794253e-05 1.9688182832e+00 -3.4100932974e+00 1.9688182832e+00 3.4100932974e+00 
62100 3.4522770161e+00 7.2926710050e-05 1.9688164059e+00 -3.4100900459e+00 1.9688164059e+00 3.4100900459e+00 
62200 3.4522770178e+00 7.1945628445e-05 1.9688145539e+00 -3.4100868380e+00 1.9688145539e+00 3.4100868380e+00 
62300 3.4522770195e+00 7.0977382177e-05 1.9688127268e+00 -3.4100836733e+00 1.9688127268e+00 3.4100836733e+00 
62400 3.4522770212e+00 7.0021806127e-05 1.9688109242e+00 -3.4100805512e+00 1.9688109242e+00 3.4100805512e+00 
62500 3.4522770230e+00 6.9813144655e-05 1.9688109242e+00 -3.4100805512e+00 1.9688109242e+00 3.4100805512e+00 
62600 3.4522770247e+00 6.9608559822e-05 1.9688109242e+00 -3.4100805512e+00 1.9688109242e+00 3.4100805512e+00 
62700 3.4522770265e+00 6.9408298621e-05 1.9688109242e+00 -3.4100805512e+00 1.9688109242e+00 3.4100805512e+00 
62800 3.4522770282e+00 6.9212576282e-05 1.9688109242e+00 -3.4100805512e+00 1.9688109242e+00 3.4100805512e+00 
62900 3.4522770299e+00 6.9021577821e-05 1.9688109242e+00 -3.4100805512e+00 1.9688109242e+00 3.4100805512e+00 
63000 3.4522770315e+00 6.8835459591e-05 1.9688109242e+00 -3.4100805512e+00 1.9688109242e+00 3.4100805512e+00 
63100 3.4522770332e+00 6.8654350823e-05 1.9688109242e+00 -3.4100805512e+00 1.9688109242e+00 3.4100805512e+00 
63200 3.4522770348e+00 6.8478355159e-05 1.9688109242e+00 -3.4100805512e+00 1.9688109242e+00 3.4100805512e+00 
63300 3.4522770364e+00 6.8307552148e-05 1.9688109242e+00 -3.4100805512e+00 1.9688109242e+00 3.4100805512e+00 
63400 3.4522770380e+00 6.8141998743e-05 1.9688109242e+00 -3.4100805512e+00 1.9688109242e+00 3.4100805512e+00 
63500 3.4522770395e+00 6.7981730751e-05 1.9688109242e+00 -3.4100805512e+00 1.9688109242e+00 3.4100805512e+00 
63600 3.4522770410e+00 6.7826764256e-05 1.9688109242e+00 -3.4100805512e+00 1.9688109242e+00 3.4100805512e+00 
63700 3.4522770425e+00 6.7677097014e-05 1.9688109242e+00 -3.4100805512e+00 1.9688109242e+00 3.4100805512e+00 
63800 3.4522770440e+00 6.7532709803e-05 1.9688109242e+00 -3.4100805512e+00 1.9688109242e+00 3.4100805512e+00 
63900 3.4522770455e+00 6.7393567735e-05 1.9688109242e+00 -3.4100805512e+00 1.9688109242e+00 3.4100805512e+00 
64000 3.4522770469e+00 6.7259621535e-05 1.9688109242e+00 -3.4100805512e+00 1.9688109242e+00 3.4100805512e+00 
64100 3.4522770483e+00 6.7130808757e-05 1.9688109242e+00 -3.4100805512e+00 1.9688109242e+00 3.4100805512e+00 
64200 3.4522770497e+00 6.7007054977e-05 1.9688109242e+00 -3.4100805512e+00 1.9688109242e+00 3.4100805512e+00 
64300 3.4522770511e+00 6.6888274926e-05 1.9688109242e+00 -3.4100805512e+00 1.9688109242e+00 3.4100805512e+00 
64400 3.4522770525e+00 6.6774373583e-05 1.9688109242e+00 -3.4100805512e+00 1.9688109242e+00 3.4100805512e+00 
64500 3.4522770538e+00 6.6665247219e-05 1.9688109242e+00 -3.4100805512e+00 1.9688109242e+00 3.4100805512e+00 
64600 3.4522770552e+00 6.6560784393e-05 1.9688109242e+00 -3.4100805512e+00 1.9688109242e+00 3.4100805512e+00 
64700 3.4522770565e+00 6.6460866898e-05 1.9688109242e+00 -3.4100805512e+00 1.9688109242e+00 3.4100805512e+00 
64800 3.4522770577e+00 6.6365370668e-05 1.9688109242e+00 -3.4100805512e+00 1.9688109242e+00 3.4100805512e+00 
64900 3.4522770590e+00 6.6274166629e-05 1.9688109242e+00 -3.4100805512e+00 1.9688109242e+00 3.4100805512e+00 
65000 3.4522770603e+00 6.6187121511e-05 1.9688109242e+00 -3.4100805512e+00 1.9688109242e+00 3.4100805512e+00 
65100 3.4522770615e+00 6.6104098605e-05 1.9688109242e+00 -3.4100805512e+00 1.9688109242e+00 3.4100805512e+00 
65200 3.4522770627e+00 6.6024958480e-05 1.9688109242e+00 -3.4100805512e+00 1.9688109242e+00 3.4100805512e+00 
65300 3.4522770639e+00 6.5949559661e-05 1.9688109242e+00 -3.4100805512e+00 1.9688109242e+00 3.4100805512e+00 
65400 3.4522770651e+00 6.5877759251e-05 1.9688109242e+00 -3.4100805512e+00 1.9688109242e+00 3.4100805512e+00 
65500 3.4522770663e+00 6.5809413521e-05 1.9688109242e+00 -3.4100805512e+00 1.9688109242e+00 3.4100805512e+00 
65600 3.4522770674e+00 6.5744378457e-05 1.9688109242e+00 -3.4100805512e+00 1.9688109242e+00 3.4100805512e+00 
65700 3.4522770686e+00 6.5682510256e-05 1.9688109242e+00 -3.4100805512e+00 1.9688109242e+00 3.4100805512e+00 
65800 3.4522770697e+00 6.5623665806e-05 1.9688109242e+00 -3.4100805512e+00 1.9688109242e+00 3.4100805512e+00 
65900 3.4522770708e+00 6.5567703099e-05 1.9688109242e+00 -3.4100805512e+00 1.9688109242e+00 3.4100805512e+00 
66000 3.4522770719e+00 6.5514481639e-05 1.9688109242e+00 -3.4100805512e+00 1.9688109242e+00 3.4100805512e+00 
66100 3.4522770729e+00 6.5463862785e-05 1.9688109242e+00 -3.4100805512e+00 1.9688109242e+00 3.4100805512e+00 
66200 3.4522770740e+00 6.5415710086e-05 1.9688109242e+00 -3.4100805512e+00 1.9688109242e+00 3.4100805512e+00 
66300 3.4522770750e+00 6.5369889567e-05 1.9688109242e+00 -3.4100805512e+00 1.9688109242e+00 3.4100805512e+00 
66400 3.4522770761e+00 6.5326269993e-05 1.9688109242e+00 -3.4100805512e+00 1.9688109242e+00 3.4100805512e+00 
66500 3.4522770771e+00 6.5284723099e-05 1.9688109242e+00 -3.4100805512e+00 1.9688109242e+00 3.4100805512e+00 
66600 3.4522770781e+00 6.5245123796e-05 1.9688109242e+00 -3.4100805512e+00 1.9688109242e+00 3.4100805512e+00 
66700 3.4522770791e+00 6.5207350353e-05 1.9688109242e+00 -3.4100805512e+00 1.9688109242e+00 3.4100805512e+00 
66800 3.4522770800e+00 6.5171284542e-05 1.9688109242e+00 -3.4100805512e+00 1.9688109242e+00 3.4100805512e+00 
66900 3.4522770810e+00 6.5136811774e-05 1.9688109242e+00 -3.4100805512e+00 1.9688109242e+00 3.4100805512e+00 
67000 3.4522770819e+00 6.5103821204e-05 1.9688109242e+00 -3.4100805512e+00 1.9688109242e+00 3.4100805512e+00 
67100 3.4522770829e+00 6.5072205819e-05 1.9688109242e+00 -3.4100805512e+00 1.9688109242e+00 3.4100805512e+00 
67200 3.4522770838e+00 6.5041862504e-05 1.9688109242e+00 -3.4100805512e+00 1.9688109242e+00 3.4100805512e+00 
67300 3.4522770847e+00 6.5012692090e-05 1.9688109242e+00 -3.4100805512e+00 1.9688109242e+00 3.4100805512e+00 
67400 3.4522770856e+00 6.4984599389e-05 1.9688109242e+00 -3.4100805512e+00 1.9688109242e+00 3.4100805512e+00 
67500 3.4522770865e+00 6.4957493204e-05 1.9688109242e+00 -3.4100805512e+00 1.9688109242e+00 3.4100805512e+00 
67600 3.4522770874e+00 6.4931286337e-05 1.9688109242e+00 -3.4100805512e+00 1.9688109242e+00 3.4100805512e+00 
67700 3.4522770882e+00 6.4905895570e-05 1.9688109242e+00 -3.4100805512e+00 1.9688109242e+00 3.4100805512e+00 
67800 3.4522770891e+00 6.4881241648e-05 1.9688109242e+00 -3.4100805512e+00 1.9688109242e+00 3.4100805512e+00 
67900 3.4522770899e+00 6.4857249235e-05 1.9688109242e+00 -3.4100805512e+00 1.9688109242e+00 3.4100805512e+00 
68000 3.4522770907e+00 6.4833846869e-05 1.9688109242e+00 -3.4100805512e+00 1.9688109242e+00 3.4100805512e+00 
68100 3.4522770915e+00 6.4810966911e-05 1.9688109242e+00 -3.4100805512e+00 1.9688109242e+00 3.4100805512e+00 
68200 3.4522770923e+00 6.4788545475e-05 1.9688109242e+00 -3.4100805512e+00 1.9688109242e+00 3.4100805512e+00 
68300 3.4522770931e+00 6.4766522359e-05 1.9688109242e+00 -3.4100805512e+00 1.9688109242e+00 3.4100805512e+00 
68400 3.4522770939e+00 6.4744840964e-05 1.9688109242e+00 -3.4100805512e+00 1.9688109242e+00 3.4100805512e+00 
68500 3.4522770947e+00 6.4723448208e-05 1.9688109242e+00 -3.4100805512e+00 1.9688109242e+00 3.4100805512e+00 
68600 3.4522770954e+00 6.4702294439e-05 1.9688109242e+00 -3.4100805512e+00 1.9688109242e+00 3.4100805512e+00 
68700 3.4522770962e+00 6.4681333340e-05 1.9688109242e+00 -3.4100805512e+00 1.9688109242e+00 3.4100805512e+00 
68800 3.4522770969e+00 6.4660521827e-05 1.9688109242e+00 -3.4100805512e+00 1.9688109242e+00 3.4100805512e+00 
68900 3.4522770976e+00 6.4639819949e-05 1.9688109242e+00 -3.4100805512e+00 1.9688109242e+00 3.4100805512e+00 
69000 3.4522770984e+00 6.4619190784e-05 1.9688109242e+00 -3.4100805512e+00 1.9688109242e+00 3.4100805512e+00 
69100 3.4522770991e+00 6.4598600334e-05 1.9688109242e+00 -3.4100805512e+00 1.9688109242e+00 3.4100805512e+00 
69200 3.4522770998e+00 6.4578017413e-05 1.9688109242e+00 -3.4100805512e+00 1.9688109242e+00 3.4100805512e+00 
69300 3.4522771005e+00 6.4557413543e-05 1.9688109242e+00 -3.4100805512e+00 1.9688109242e+00 3.4100805512e+00 
69400 3.4522771011e+00 6.4536762838e-05 1.9688109242e+00 -3.4100805512e+00 1.9688109242e+00 3.4100805512e+00 
69500 3.4522771018e+00 6.4516041900e-05 1.9688109242e+00 -3.4100805512e+00 1.9688109242e+00 3.4100805512e+00 
69600 3.4522771025e+00 6.4495229709e-05 1.9688109242e+00 -3.4100805512e+00 1.9688109242e+00 3.4100805512e+00 
69700 3.4522771031e+00 6.4474307507e-05 1.9688109242e+00 -3.4100805512e+00 1.9688109242e+00 3.4100805512e+00 
69800 3.4522771038e+00 6.4453258700e-05 1.9688109242e+00 -3.4100805512e+00 1.9688109242e+00 3.4100805512e+00 
69900 3.4522771044e+00 6.4432068744e-05 1.9688109242e+00 -3.4100805512e+00 1.9688109242e+00 3.4100805512e+00 
70000 3.4522771050e+00 6.4410725041e-05 1.9688109242e+00 -3.4100805512e+00 1.9688109242e+00 3.4100805512e+00 
70100 3.4522771056e+00 6.4389216835e-05 1.9688109242e+00 -3.4100805512e+00 1.9688109242e+00 3.4100805512e+00 
70200 3.4522771062e+00 6.4367535114e-05 1.9688109242e+00 -3.4100805512e+00 1.9688109242e+00 3.4100805512e+00 
70300 3.4522771068e+00 6.4345672504e-05 1.9688109242e+00 -3.4100805512e+00 1.9688109242e+00 3.4100805512e+00 
70400 3.4522771074e+00 6.4323623176e-05 1.9688109242e+00 -3.4100805512e+00 1.9688109242e+00 3.4100805512e+00 
70500 3.4522771080e+00 6.4301382747e-05 1.9688109242e+00 -3.4100805512e+00 1.9688109242e+00 3.4100805512e+00 
70600 3.4522771086e+00 6.4278948194e-05 1.9688109242e+00 -3.4100805512e+00 1.9688109242e+00 3.4100805512e+00 
70700 3.4522771092e+00 6.4256317755e-05 1.9688109242e+00 -3.4100805512e+00 1.9688109242e+00 3.4100805512e+00 
70800 3.4522771097e+00 6.4233490851e-05 1.9688109242e+00 -3.4100805512e+00 1.9688109242e+00 3.4100805512e+00 
70900 3.4522771103e+00 6.4210467995e-05 1.9688109242e+00 -3.4100805512e+00 1.9688109242e+00 3.4100805512e+00 
71000 3.4522771108e+00 6.4187250715e-05 1.9688109242e+00 -3.4100805512e+00 1.9688109242e+00 3.4100805512e+00 
71100 3.4522771114e+00 6.4163841471e-05 1.9688109242e+00 -3.4100805512e+00 1.9688109242e+00 3.4100805512e+00 
71200 3.4522771119e+00 6.4140243586e-05 1.9688109242e+00 -3.4100805512e+00 1.9688109242e+00 3.4100805512e+00 
71300 3.4522771124e+00 6.4116461165e-05 1.9688109242e+00 -3.4100805512e+00 1.9688109242e+00 3.4100805512e+00 
71400 3.4522771129e+00 6.4092499033e-05 1.9688109242e+00 -3.4100805512e+00 1.9688109242e+00 3.4100805512e+00 
71500 3.4522771134e+00 6.4068362666e-05 1.9688109242e+00 -3.4100805512e+00 1.9688109242e+00 3.4100805512e+00 
71600 3.4522771139e+00 6.4044058125e-05 1.9688109242e+00 -3.4100805512e+00 1.9688109242e+00 3.4100805512e+00 
71700 3.4522771144e+00 6.4019591997e-05 1.9688109242e+00 -3.4100805512e+00 1.9688109242e+00 3.4100805512e+00 
71800 3.4522771149e+00 6.3994971340e-05 1.9688109242e+00 -3.4100805512e+00 1.9688109242e+00 3.4100805512e+00 
71900 3.4522771154e+00 6.3970203625e-05 1.9688109242e+00 -3.4100805512e+00 1.9688109242e+00 3.4100805512e+00 
72000 3.4522771159e+00 6.3945296682e-05 1.9688109242e+00 -3.4100805512e+00 1.9688109242e+00 3.4100805512e+00 
72100 3.4522771163e+00 6.3920258656e-05 1.9688109242e+00 -3.4100805512e+00 1.9688109242e+00 3.4100805512e+00 
72200 3.4522771168e+00 6.3895097958e-05 1.9688109242e+00 -3.4100805512e+00 1.9688109242e+00 3.4100805512e+00 
72300 3.4522771173e+00 6.3869823219e-05 1.9688109242e+00 -3.4100805512e+00 1.9688109242e+00 3.4100805512e+00 
72400 3.4522771177e+00 6.3844443254e-05 1.9688109242e+00 -3.4100805512e+00 1.9688109242e+00 3.4100805512e+00 
72500 3.4522771182e+00 6.3818967017e-05 1.9688109242e+00 -3.4100805512e+00 1.9688109242e+00 3.4100805512e+00 
72600 3.4522771186e+00 6.3793403568e-05 1.9688109242e+00 -3.4100805512e+00 1.9688109242e+00 3.4100805512e+00 
72700 3.4522771190e+00 6.3767762040e-05 1.9688109242e+00 -3.4100805512e+00 1.9688109242e+00 3.4100805512e+00 
72800 3.4522771195e+00 6.3742051606e-05 1.9688109242e+00 -3.4100805512e+00 1.9688109242e+00 3.4100805512e+00 
72900 3.4522771199e+00 6.3716281450e-05 1.9688109242e+00 -3.4100805512e+00 1.9688109242e+00 3.4100805512e+00 
73000 3.4522771203e+00 6.3690460736e-05 1.9688109242e+00 -3.4100805512e+00 1.9688109242e+00 3.4100805512e+00 
73100 3.4522771207e+00 6.3664598592e-05 1.9688109242e+00 -3.4100805512e+00 1.9688109242e+00 3.4100805512e+00 
73200 3.4522771211e+00 6.3638704078e-05 1.9688109242e+00 -3.4100805512e+00 1.9688109242e+00 3.4100805512e+00 
73300 3.4522771215e+00 6.3612786167e-05 1.9688109242e+00 -3.4100805512e+00 1.9688109242e+00 3.4100805512e+00 
73400 3.4522771219e+00 6.3586853727e-05 1.9688109242e+00 -3.4100805512e+00 1.9688109242e+00 3.4100805512e+00 
73500 3.4522771223e+00 6.3560915504e-05 1.9688109242e+00 -3.4100805512e+00 1.9688109242e+00 3.4100805512e+00 
73600 3.4522771227e+00 6.3534980101e-05 1.9688109242e+00 -3.4100805512e+00 1.9688109242e+00 3.4100805512e+00 
73700 3.4522771231e+00 6.3509055972e-05 1.9688109242e+00 -3.4100805512e+00 1.9688109242e+00 3.4100805512e+00 
73800 3.4522771234e+00 6.3483151397e-05 1.9688109242e+00 -3.4100805512e+00 1.9688109242e+00 3.4100805512e+00 
73900 3.4522771238e+00 6.3457274482e-05 1.9688109242e+00 -3.4100805512e+00 1.9688109242e+00 3.4100805512e+00 
74000 3.4522771242e+00 6.3431433144e-05 1.9688109242e+00 -3.4100805512e+00 1.9688109242e+00 3.4100805512e+00 
74100 3.4522771245e+00 6.3405635097e-05 1.9688109242e+00 -3.4100805512e+00 1.9688109242e+00 3.4100805512e+00 
74200 3.4522771249e+00 6.3379887855e-05 1.9688109242e+00 -3.4100805512e+00 1.9688109242e+00 3.4100805512e+00 
74300 3.4522771252e+00 6.3354198717e-05 1.9688109242e+00 -3.4100805512e+00 1.9688109242e+00 3.4100805512e+00 
74400 3.4522771256e+00 6.3328574765e-05 1.9688109242e+00 -3.4100805512e+00 1.9688109242e+00 3.4100805512e+00 
74500 3.4522771259e+00 6.3303022854e-05 1.9688109242e+00 -3.4100805512e+00 1.9688109242e+00 3.4100805512e+00 
74600 3.4522771262e+00 6.3277549618e-05 1.9688109242e+00 -3.4100805512e+00 1.9688109242e+00 3.4100805512e+00 
74700 3.4522771266e+00 6.3252161461e-05 1.9688109242e+00 -3.4100805512e+00 1.9688109242e+00 3.4100805512e+00 
74800 3.4522771269e+00 6.3226864551e-05 1.9688109242e+00 -3.4100805512e+00 1.9688109242e+00 3.4100805512e+00 
74900 3.4522771272e+00 6.3201664830e-05 1.9688109242e+00 -3.4100805512e+00 1.9688109242e+00 3.4100805512e+00 
75000 3.4522771275e+00 6.3176568006e-05 1.9688109242e+00 -3.4100805512e+00 1.9688109242e+00 3.4100805512e+00 
75100 3.4522771278e+00 6.3151579550e-05 1.9688109242e+00 -3.4100805512e+00 1.9688109242e+00 3.4100805512e+00 
75200 3.4522771282e+00 6.3126704705e-05 1.9688109242e+00 -3.4100805512e+00 1.9688109242e+00 3.4100805512e+00 
75300 3.4522771285e+00 6.3101948483e-05 1.9688109242e+00 -3.4100805512e+00 1.9688109242e+00 3.4100805512e+00 
75400 3.4522771288e+00 6.3077315667e-05 1.9688109242e+00 -3.4100805512e+00 1.9688109242e+00 3.4100805512e+00 
75500 3.4522771291e+00 6.3052810812e-05 1.9688109242e+00 -3.4100805512e+00 1.9688109242e+00 3.4100805512e+00 
75600 3.4522771294e+00 6.3028438251e-05 1.9688109242e+00 -3.4100805512e+00 1.9688109242e+00 3.4100805512e+00 
75700 3.4522771296e+00 6.3004202095e-05 1.9688109242e+00 -3.4100805512e+00 1.9688109242e+00 3.4100805512e+00 
75800 3.4522771299e+00 6.2980106239e-05 1.9688109242e+00 -3.4100805512e+00 1.9688109242e+00 3.4100805512e+00 
75900 3.4522771302e+00 6.2956154361e-05 1.9688109242e+00 -3.4100805512e+00 1.9688109242e+00 3.4100805512e+00 
76000 3.4522771305e+00 6.2932349935e-05 1.9688109242e+00 -3.4100805512e+00 1.9688109242e+00 3.4100805512e+00 
76100 3.4522771308e+00 6.2908696222e-05 1.9688109242e+00 -3.4100805512e+00 1.9688109242e+00 3.4100805512e+00 
76200 3.4522771310e+00 6.2885196288e-05 1.9688109242e+00 -3.4100805512e+00 1.9688109242e+00 3.4100805512e+00 
76300 3.4522771313e+00 6.2861853000e-05 1.9688109242e+00 -3.4100805512e+00 1.9688109242e+00 3.4100805512e+00 
76400 3.4522771316e+00 6.2838669032e-05 1.9688109242e+00 -3.4100805512e+00 1.9688109242e+00 3.4100805512e+00 
76500 3.4522771318e+00 6.2815646873e-05 1.9688109242e+00 -3.4100805512e+00 1.9688109242e+00 3.4100805512e+00 
76600 3.4522771321e+00 6.2792788828e-05 1.9688109242e+00 -3.4100805512e+00 1.9688109242e+00 3.4100805512e+00 
76700 3.4522771323e+00 6.2770097026e-05 1.9688109242e+00 -3.4100805512e+00 1.9688109242e+00 3.4100805512e+00 
76800 3.4522771326e+00 6.2747573427e-05 1.9688109242e+00 -3.4100805512e+00 1.9688109242e+00 3.4100805512e+00 
76900 3.4522771328e+00 6.2725219818e-05 1.9688109242e+00 -3.4100805512e+00 1.9688109242e+00 3.4100805512e+00 
77000 3.4522771331e+00 6.2703037828e-05 1.9688109242e+00 -3.4100805512e+00 1.9688109242e+00 3.4100805512e+00 
77100 3.4522771333e+00 6.2681028931e-05 1.9688109242e+00 -3.4100805512e+00 1.9688109242e+00 3.4100805512e+00 
77200 3.4522771336e+00 6.2659194447e-05 1.9688109242e+00 -3.4100805512e+00 1.9688109242e+00 3.4100805512e+00 
77300 3.4522771338e+00 6.2637535552e-05 1.9688109242e+00 -3.4100805512e+00 1.9688109242e+00 3.4100805512e+00 
77400 3.4522771340e+00 6.2616053279e-05 1.9688109242e+00 -3.4100805512e+00 1.9688109242e+00 3.4100805512e+00 
77500 3.4522771342e+00 6.2594748527e-05 1.9688109242e+00 -3.4100805512e+00 1.9688109242e+00 3.4100805512e+00 
77600 3.4522771345e+00 6.2573622062e-05 1.9688109242e+00 -3.4100805512e+00 1.9688109242e+00 3.4100805512e+00 
77700 3.4522771347e+00 6.2552674528e-05 1.9688109242e+00 -3.4100805512e+00 1.9688109242e+00 3.4100805512e+00 
77800 3.4522771349e+00 6.2531906444e-05 1.9688109242e+00 -3.4100805512e+00 1.9688109242e+00 3.4100805512e+00 
77900 3.4522771351e+00 6.2511318217e-05 1.9688109242e+00 -3.4100805512e+00 1.9688109242e+00 3.4100805512e+00 
78000 3.4522771353e+00 6.2490910137e-05 1.9688109242e+00 -3.4100805512e+00 1.9688109242e+00 3.4100805512e+00 
78100 3.4522771355e+00 6.2470682394e-05 1.9688109242e+00 -3.4100805512e+00 1.9688109242e+00 3.4100805512e+00 
78200 3.4522771358e+00 6.2450635070e-05 1.9688109242e+00 -3.4100805512e+00 1.9688109242e+00 3.4100805512e+00 
78300 3.4522771360e+00 6.2430768155e-05 1.9688109242e+00 -3.4100805512e+00 1.9688109242e+00 3.4100805512e+00 
78400 3.4522771362e+00 6.2411081541e-05 1.9688109242e+00 -3.4100805512e+00 1.9688109242e+00 3.4100805512e+00 
78500 3.4522771364e+00 6.2391575032e-05 1.9688109242e+00 -3.4100805512e+00 1.9688109242e+00 3.4100805512e+00 
78600 3.4522771366e+00 6.2372248352e-05 1.9688109242e+00 -3.4100805512e+00 1.9688109242e+00 3.4100805512e+00 
78700 3.4522771368e+00 6.2353101138e-05 1.9688109242e+00 -3.4100805512e+00 1.9688109242e+00 3.4100805512e+00 
78800 3.4522771369e+00 6.2334132955e-05 1.9688109242e+00 -3.4100805512e+00 1.9688109242e+00 3.4100805512e+00 
78900 3.4522771371e+00 6.2315343290e-05 1.9688109242e+00 -3.4100805512e+00 1.9688109242e+00 3.4100805512e+00 
79000 3.4522771373e+00 6.2296731567e-05 1.9688109242e+00 -3.4100805512e+00 1.9688109242e+00 3.4100805512e+00 
79100 3.4522771375e+00 6.2278297141e-05 1.9688109242e+00 -3.4100805512e+00 1.9688109242e+00 3.4100805512e+00 
79200 3.4522771377e+00 6.2260039304e-05 1.9688109242e+00 -3.4100805512e+00 1.9688109242e+00 3.4100805512e+00 
79300 3.4522771379e+00 6.2241957293e-05 1.9688109242e+00 -3.4100805512e+00 1.9688109242e+00 3.4100805512e+00 
79400 3.4522771381e+00 6.2224050287e-05 1.9688109242e+00 -3.4100805512e+00 1.9688109242e+00 3.4100805512e+00 
79500 3.4522771382e+00 6.2206317412e-05 1.9688109242e+00 -3.4100805512e+00 1.9688109242e+00 3.4100805512e+00 
79600 3.4522771384e+00 6.2188757749e-05 1.9688109242e+00 -3.4100805512e+00 1.9688109242e+00 3.4100805512e+00 
79700 3.4522771386e+00 6.2171370329e-05 1.9688109242e+00 -3.4100805512e+00 1.9688109242e+00 3.4100805512e+00 
79800 3.4522771387e+00 6.2154154141e-05 1.9688109242e+00 -3.4100805512e+00 1.9688109242e+00 3.4100805512e+00 
79900 3.4522771389e+00 6.2137108136e-05 1.9688109242e+00 -3.4100805512e+00 1.9688109242e+00 3.4100805512e+00 
80000 3.4522771391e+00 6.2120231225e-05 1.9688109242e+00 -3.4100805512e+00 1.9688109242e+00 3.4100805512e+00 
80100 3.4522771392e+00 6.2103522282e-05 1.9688109242e+00 -3.4100805512e+00 1.9688109242e+00 3.4100805512e+00 
80200 3.4522771394e+00 6.2086980152e-05 1.9688109242e+00 -3.4100805512e+00 1.9688109242e+00 3.4100805512e+00 
80300 3.4522771395e+00 6.2070603649e-05 1.9688109242e+00 -3.4100805512e+00 1.9688109242e+00 3.4100805512e+00 
80400 3.4522771397e+00 6.2054391557e-05 1.9688109242e+00 -3.4100805512e+00 1.9688109242e+00 3.4100805512e+00 
80500 3.4522771399e+00 6.2038342635e-05 1.9688109242e+00 -3.4100805512e+00 1.9688109242e+00 3.4100805512e+00 
80600 3.4522771400e+00 6.2022455619e-05 1.9688109242e+00 -3.4100805512e+00 1.9688109242e+00 3.4100805512e+00 
80700 3.4522771402e+00 6.2006729224e-05 1.9688109242e+00 -3.4100805512e+00 1.9688109242e+00 3.4100805512e+00 
80800 3.4522771403e+00 6.1991162143e-05 1.9688109242e+00 -3.4100805512e+00 1.9688109242e+00 3.4100805512e+00 
80900 3.4522771405e+00 6.1975753050e-05 1.9688109242e+00 -3.4100805512e+00 1.9688109242e+00 3.4100805512e+00 
81000 3.4522771406e+00 6.1960500609e-05 1.9688109242e+00 -3.4100805512e+00 1.9688109242e+00 3.4100805512e+00 
81100 3.4522771407e+00 6.1945403462e-05 1.9688109242e+00 -3.4100805512e+00 1.9688109242e+00 3.4100805512e+00 
81200 3.4522771409e+00 6.1930460244e-05 1.9688109242e+00 -3.4100805512e+00 1.9688109242e+00 3.4100805512e+00 
81300 3.4522771410e+00 6.1915669576e-05 1.9688109242e+00 -3.4100805512e+00 1.9688109242e+00 3.4100805512e+00 
81400 3.4522771412e+00 6.1901030070e-05 1.9688109242e+00 -3.4100805512e+00 1.9688109242e+00 3.4100805512e+00 
81500 3.4522771413e+00 6.1886540327e-05 1.9688109242e+00 -3.4100805512e+00 1.9688109242e+00 3.4100805512e+00 
81600 3.4522771414e+00 6.1872198945e-05 1.9688109242e+00 -3.4100805512e+00 1.9688109242e+00 3.4100805512e+00 
81700 3.4522771416e+00 6.1858004514e-05 1.9688109242e+00 -3.4100805512e+00 1.9688109242e+00 3.4100805512e+00 
81800 3.4522771417e+00 6.1843955620e-05 1.9688109242e+00 -3.4100805512e+00 1.9688109242e+00 3.4100805512e+00 
81900 3.4522771418e+00 6.1830050845e-05 1.9688109242e+00 -3.4100805512e+00 1.9688109242e+00 3.4100805512e+00 
82000 3.4522771419e+00 6.1816288769e-05 1.9688109242e+00 -3.4100805512e+00 1.9688109242e+00 3.4100805512e+00 
82100 3.4522771421e+00 6.1802667972e-05 1.9688109242e+00 -3.4100805512e+00 1.9688109242e+00 3.4100805512e+00 
82200 3.4522771422e+00 6.1789187033e-05 1.9688109242e+00 -3.4100805512e+00 1.9688109242e+00 3.4100805512e+00 
82300 3.4522771423e+00 6.1775844531e-05 1.9688109242e+00 -3.4100805512e+00 1.9688109242e+00 3.4100805512e+00 
82400 3.4522771424e+00 6.1762639046e-05 1.9688109242e+00 -3.4100805512e+00 1.9688109242e+00 3.4100805512e+00 
82500 3.4522771426e+00 6.1749569164e-05 1.9688109242e+00 -3.4100805512e+00 1.9688109242e+00 3.4100805512e+00 
82600 3.4522771427e+00 6.1736633471e-05 1.9688109242e+00 -3.4100805512e+00 1.9688109242e+00 3.4100805512e+00 
82700 3.4522771428e+00 6.1723830557e-05 1.9688109242e+00 -3.4100805512e+00 1.9688109242e+00 3.4100805512e+00 
82800 3.4522771429e+00 6.1711159019e-05 1.9688109242e+00 -3.4100805512e+00 1.9688109242e+00 3.4100805512e+00 
82900 3.4522771430e+00 6.1698617457e-05 1.9688109242e+00 -3.4100805512e+00 1.9688109242e+00 3.4100805512e+00 
83000 3.4522771431e+00 6.1686204479e-05 1.9688109242e+00 -3.4100805512e+00 1.9688109242e+00 3.4100805512e+00 
83100 3.4522771432e+00 6.1673918701e-05 1.9688109242e+00 -3.4100805512e+00 1.9688109242e+00 3.4100805512e+00 
83200 3.4522771433e+00 6.1661758743e-05 1.9688109242e+00 -3.4100805512e+00 1.9688109242e+00 3.4100805512e+00 
83300 3.4522771434e+00 6.1649723234e-05 1.9688109242e+00 -3.4100805512e+00 1.9688109242e+00 3.4100805512e+00 
83400 3.4522771436e+00 6.1637810811e-05 1.9688109242e+00 -3.4100805512e+00 1.9688109242e+00 3.4100805512e+00 
83500 3.4522771437e+00 6.1626020121e-05 1.9688109242e+00 -3.4100805512e+00 1.9688109242e+00 3.4100805512e+00 
83600 3.4522771438e+00 6.1614349822e-05 1.9688109242e+00 -3.4100805512e+00 1.9688109242e+00 3.4100805512e+00 
83700 3.4522771439e+00 6.1602798575e-05 1.9688109242e+00 -3.4100805512e+00 1.9688109242e+00 3.4100805512e+00 
83800 3.4522771440e+00 6.1591365058e-05 1.9688109242e+00 -3.4100805512e+00 1.9688109242e+00 3.4100805512e+00 
83900 3.4522771441e+00 6.1580047957e-05 1.9688109242e+00 -3.4100805512e+00 1.9688109242e+00 3.4100805512e+00 
84000 3.4522771442e+00 6.1568845965e-05 1.9688109242e+00 -3.4100805512e+00 1.9688109242e+00 3.4100805512e+00 
84100 3.4522771443e+00 6.1557757793e-05 1.9688109242e+00 -3.4100805512e+00 1.9688109242e+00 3.4100805512e+00 
84200 3.4522771444e+00 6.1546782158e-05 1.9688109242e+00 -3.4100805512e+00 1.9688109242e+00 3.4100805512e+00 
84300 3.4522771444e+00 6.1535917790e-05 1.9688109242e+00 -3.4100805512e+00 1.9688109242e+00 3.4100805512e+00 
84400 3.4522771445e+00 6.1525163432e-05 1.9688109242e+00 -3.4100805512e+00 1.9688109242e+00 3.4100805512e+00 
84500 3.4522771446e+00 6.1514517836e-05 1.9688109242e+00 -3.4100805512e+00 1.9688109242e+00 3.4100805512e+00 
84600 3.4522771447e+00 6.1503979770e-05 1.9688109242e+00 -3.4100805512e+00 1.9688109242e+00 3.4100805512e+00 
84700 3.4522771448e+00 6.1493548013e-05 1.9688109242e+00 -3.4100805512e+00 1.9688109242e+00 3.4100805512e+00 
84800 3.4522771449e+00 6.1483221352e-05 1.9688109242e+00 -3.4100805512e+00 1.9688109242e+00 3.4100805512e+00 
84900 3.4522771450e+00 6.1472998595e-05 1.9688109242e+00 -3.4100805512e+00 1.9688109242e+00 3.4100805512e+00 
85000 3.4522771451e+00 6.1462878556e-05 1.9688109242e+00 -3.4100805512e+00 1.9688109242e+00 3.4100805512e+00 
85100 3.4522771452e+00 6.1452860064e-05 1.9688109242e+00 -3.4100805512e+00 1.9688109242e+00 3.4100805512e+00 
85200 3.4522771452e+00 6.1442941961e-05 1.9688109242e+00 -3.4100805512e+00 1.9688109242e+00 3.4100805512e+00 
85300 3.4522771453e+00 6.1433123104e-05 1.9688109242e+00 -3.4100805512e+00 1.9688109242e+00 3.4100805512e+00 
85400 3.4522771454e+00 6.1423402360e-05 1.9688109242e+00 -3.4100805512e+00 1.9688109242e+00 3.4100805512e+00 
85500 3.4522771455e+00 6.1413778609e-05 1.9688109242e+00 -3.4100805512e+00 1.9688109242e+00 3.4100805512e+00 
85600 3.4522771456e+00 6.1404250747e-05 1.9688109242e+00 -3.4100805512e+00 1.9688109242e+00 3.4100805512e+00 
85700 3.4522771456e+00 6.1394817681e-05 1.9688109242e+00 -3.4100805512e+00 1.9688109242e+00 3.4100805512e+00 
85800 3.4522771457e+00 6.1385478333e-05 1.9688109242e+00 -3.4100805512e+00 1.9688109242e+00 3.4100805512e+00 
85900 3.4522771458e+00 6.1376231635e-05 1.9688109242e+00 -3.4100805512e+00 1.9688109242e+00 3.4100805512e+00 
86000 3.4522771459e+00 6.1367076534e-05 1.9688109242e+00 -3.4100805512e+00 1.9688109242e+00 3.4100805512e+00 
86100 3.4522771459e+00 6.1358011993e-05 1.9688109242e+00 -3.4100805512e+00 1.9688109242e+00 3.4100805512e+00 
86200 3.4522771460e+00 6.1349036982e-05 1.9688109242e+00 -3.4100805512e+00 1.9688109242e+00 3.4100805512e+00 
86300 3.4522771461e+00 6.1340150489e-05 1.9688109242e+00 -3.4100805512e+00 1.9688109242e+00 3.4100805512e+00 
86400 3.4522771462e+00 6.1331351513e-05 1.9688109242e+00 -3.4100805512e+00 1.9688109242e+00 3.4100805512e+00 
86500 3.4522771462e+00 6.1322639066e-05 1.9688109242e+00 -3.4100805512e+00 1.9688109242e+00 3.4100805512e+00 
86600 3.4522771463e+00 6.1314012173e-05 1.9688109242e+00 -3.4100805512e+00 1.9688109242e+00 3.4100805512e+00 
86700 3.4522771464e+00 6.1305469872e-05 1.9688109242e+00 -3.4100805512e+00 1.9688109242e+00 3.4100805512e+00 
86800 3.4522771464e+00 6.1297011213e-05 1.9688109242e+00 -3.4100805512e+00 1.9688109242e+00 3.4100805512e+00 
86900 3.4522771465e+00 6.1288635259e-05 1.9688109242e+00 -3.4100805512e+00 1.9688109242e+00 3.4100805512e+00 
87000 3.4522771466e+00 6.1280341088e-05 1.9688109242e+00 -3.4100805512e+00 1.9688109242e+00 3.4100805512e+00 
87100 3.4522771466e+00 6.1272127785e-05 1.9688109242e+00 -3.4100805512e+00 1.9688109242e+00 3.4100805512e+00 
87200 3.4522771467e+00 6.1263994453e-05 1.9688109242e+00 -3.4100805512e+00 1.9688109242e+00 3.4100805512e+00 
87300 3.4522771468e+00 6.1255940201e-05 1.9688109242e+00 -3.4100805512e+00 1.9688109242e+00 3.4100805512e+00 
87400 3.4522771468e+00 6.1247964156e-05 1.9688109242e+00 -3.4100805512e+00 1.9688109242e+00 3.4100805512e+00 
87500 3.4522771469e+00 6.1240065455e-05 1.9688109242e+00 -3.4100805512e+00 1.9688109242e+00 3.4100805512e+00 
87600 3.4522771470e+00 6.1232243244e-05 1.9688109242e+00 -3.4100805512e+00 1.9688109242e+00 3.4100805512e+00 
87700 3.4522771470e+00 6.1224496685e-05 1.9688109242e+00 -3.4100805512e+00 1.9688109242e+00 3.4100805512e+00 
87800 3.4522771471e+00 6.1216824949e-05 1.9688109242e+00 -3.4100805512e+00 1.9688109242e+00 3.4100805512e+00 
87900 3.4522771471e+00 6.1209227218e-05 1.9688109242e+00 -3.4100805512e+00 1.9688109242e+00 3.4100805512e+00 
88000 3.4522771472e+00 6.1201702687e-05 1.9688109242e+00 -3.4100805512e+00 1.9688109242e+00 3.4100805512e+00 
88100 3.4522771473e+00 6.1194250562e-05 1.9688109242e+00 -3.4100805512e+00 1.9688109242e+00 3.4100805512e+00 
88200 3.4522771473e+00 6.1186870058e-05 1.9688109242e+00 -3.4100805512e+00 1.9688109242e+00 3.4100805512e+00 
88300 3.4522771474e+00 6.1179560403e-05 1.9688109242e+00 -3.4100805512e+00 1.9688109242e+00 3.4100805512e+00 
88400 3.4522771474e+00 6.1172320834e-05 1.9688109242e+00 -3.4100805512e+00 1.9688109242e+00 3.4100805512e+00 
88500 3.4522771475e+00 6.1165150601e-05 1.9688109242e+00 -3.4100805512e+00 1.9688109242e+00 3.4100805512e+00 
88600 3.4522771475e+00 6.1158048961e-05 1.9688109242e+00 -3.4100805512e+00 1.9688109242e+00 3.4100805512e+00 
88700 3.4522771476e+00 6.1151015185e-05 1.9688109242e+00 -3.4100805512e+00 1.9688109242e+00 3.4100805512e+00 
88800 3.4522771476e+00 6.1144048550e-05 1.9688109242e+00 -3.4100805512e+00 1.9688109242e+00 3.4100805512e+00 
88900 3.4522771477e+00 6.1137148345e-05 1.9688109242e+00 -3.4100805512e+00 1.9688109242e+00 3.4100805512e+00 
89000 3.4522771478e+00 6.1130313870e-05 1.9688109242e+00 -3.4100805512e+00 1.9688109242e+00 3.4100805512e+00 
89100 3.4522771478e+00 6.1123544433e-05 1.9688109242e+00 -3.4100805512e+00 1.9688109242e+00 3.4100805512e+00 
89200 3.4522771479e+00 6.1116839351e-05 1.9688109242e+00 -3.4100805512e+00 1.9688109242e+00 3.4100805512e+00 
89300 3.4522771479e+00 6.1111388735e-05 1.9688109242e+00 -3.4100805512e+00 1.9688109242e+00 3.4100805512e+00 
89300 3.4522771479e+00 6.1111388735e-05 1.9688109242e+00 -3.4100805512e+00 1.9688109242e+00 3.4100805512e+00 
