# step Hamiltonian StressXX CellTensor1 CellTensor2 CellTensor3 CellTensor4 
0 5.2160061627e+00 2.5433686513e-01 2.6408444507e+00 -4.5740767634e+00 2.6408444507e+00 4.5740767634e+00 
100 5.2096993754e+00 2.6540982637e-01 2.6408444507e+00 -4.5740767634e+00 2.6408444507e+00 4.5740767634e+00 
200 5.2052106149e+00 2.7593587600e-01 2.6358209535e+00 -4.5653758110e+00 2.6358209535e+00 4.5653758110e+00 
300 5.2031885317e+00 2.8616177385e-01 2.6305883453e+00 -4.5563126678e+00 2.6305883453e+00 4.5563126678e+00 
400 5.2033650997e+00 2.9619547245e-01 2.6251511024e+00 -4.5468950868e+00 2.6251511024e+00 4.5468950868e+00 
500 5.2054782995e+00 3.0612610635e-01 2.6195116335e+00 -4.5371272403e+00 2.6195116335e+00 4.5371272403e+00 
600 5.2092722629e+00 3.1602603503e-01 2.6136706203e+00 -4.5270103086e+00 2.6136706203e+00 4.5270103086e+00 
700 5.2144974560e+00 3.2595268497e-01 2.6076273202e+00 -4.5165430057e+00 2.6076273202e+00 4.5165430057e+00 
800 5.2209108565e+00 3.3595010528e-01 2.6013798368e+00 -4.5057220472e+00 2.6013798368e+00 4.5057220472e+00 
900 5.2282761208e+00 3.4605020413e-01 2.5949253627e+00 -4.4945425701e+00 2.5949253627e+00 4.4945425701e+00 
1000 5.2363637559e+00 3.5627366511e-01 2.5882603999e+00 -4.4829985158e+00 2.5882603999e+00 4.4829985158e+00 
1100 5.2449513238e+00 3.6663056085e-01 2.5813809655e+00 -4.4710829860e+00 2.5813809655e+00 4.4710829860e+00 
1200 5.2538237162e+00 3.7712069238e-01 2.5742827882e+00 -4.4587885823e+00 2.5742827882e+00 4.4587885823e+00 
1300 5.2627735368e+00 3.8773368917e-01 2.5669614997e+00 -4.4461077386e+00 2.5669614997e+00 4.4461077386e+00 
1400 5.2716016342e+00 3.9844891006e-01 2.5594128279e+00 -4.4330330554e+00 2.5594128279e+00 4.4330330554e+00 
1500 5.2801178224e+00 4.0923518986e-01 2.5516327949e+00 -4.4195576429e+00 2.5516327949e+00 4.4195576429e+00 
1600 5.2881418231e+00 4.2005048043e-01 2.5436179237e+00 -4.4056754789e+00 2.5436179237e+00 4.4056754789e+00 
1700 5.2955044548e+00 4.3084143965e-01 2.5353654562e+00 -4.3913817860e+00 2.5353654562e+00 4.3913817860e+00 
1800 5.3020490804e+00 4.4154302670e-01 2.5268735840e+00 -4.3766734319e+00 2.5268735840e+00 4.3766734319e+00 
1900 5.3076333114e+00 4.5207817187e-01 2.5181416930e+00 -4.3615493529e+00 2.5181416930e+00 4.3615493529e+00 
2000 5.3121309496e+00 4.6235761133e-01 2.5091706207e+00 -4.3460109999e+00 2.5091706207e+00 4.3460109999e+00 
2100 5.3154341301e+00 4.7228002328e-01 2.4999629245e+00 -4.3300628022e+00 2.4999629245e+00 4.3300628022e+00 
2200 5.3174556207e+00 4.8173268480e-01 2.4905231547e+00 -4.3137126414e+00 2.4905231547e+00 4.3137126414e+00 
2300 5.3181312145e+00 4.9059298955e-01 2.4808581233e+00 -4.2969723160e+00 2.4808581233e+00 4.2969723160e+00 
2400 5.3174221315e+00 4.9873129866e-01 2.4709771511e+00 -4.2798579700e+00 2.4709771511e+00 4.2798579700e+00 
2500 5.3153172961e+00 5.0601566387e-01 2.4608922657e+00 -4.2623904361e+00 2.4608922657e+00 4.2623904361e+00 
2600 5.3118352600e+00 5.1231884124e-01 2.4506183124e+00 -4.2445954270e+00 2.4506183124e+00 4.2445954270e+00 
2700 5.3070254089e+00 5.1752758047e-01 2.4401729265e+00 -4.2265034880e+00 2.4401729265e+00 4.2265034880e+00 
2800 5.3009679479e+00 5.2155340312e-01 2.4295763188e+00 -4.2081496250e+00 2.4295763188e+00 4.2081496250e+00 
2900 5.2937721026e+00 5.2434315631e-01 2.4188508340e+00 -4.1895725404e+00 2.4188508340e+00 4.1895725404e+00 
3000 5.2855720946e+00 5.2588696129e-01 2.4080202818e+00 -4.1708134737e+00 2.4080202818e+00 4.1708134737e+00 
3100 5.2765208126e+00 5.2622124419e-01 2.3971090842e+00 -4.1519147252e+00 2.3971090842e+00 4.1519147252e+00 
3200 5.2667816365e+00 5.2542556039e-01 2.3861413353e+00 -4.1329180268e+00 2.3861413353e+00 4.1329180268e+00 
3300 5.2565194051e+00 5.2361361195e-01 2.3751398993e+00 -4.1138629807e+00 2.3751398993e+00 4.1138629807e+00 
3400 5.2458917975e+00 5.2092049075e-01 2.3641256698e+00 -4.0947857756e+00 2.3641256698e+00 4.0947857756e+00 
3500 5.2350423091e+00 5.1748902749e-01 2.3531170756e+00 -4.0757183312e+00 2.3531170756e+00 4.0757183312e+00 
3600 5.2240955736e+00 5.1345790471e-01 2.3421298597e+00 -4.0566879149e+00 2.3421298597e+00 4.0566879149e+00 
3700 5.2131552066e+00 5.0895317777e-01 2.3311771041e+00 -4.0377171857e+00 2.3311771041e+00 4.0377171857e+00 
3800 5.2023038513e+00 5.0408361891e-01 2.3202694366e+00 -4.0188245514e+00 2.3202694366e+00 4.0188245514e+00 
3900 5.1916048155e+00 4.9893935238e-01 2.3094153426e+00 -4.0000247092e+00 2.3094153426e+00 4.0000247092e+00 
4000 5.1811046267e+00 4.9359278925e-01 2.2986215163e+00 -3.9813292537e+00 2.2986215163e+00 3.9813292537e+00 
4100 5.1708359293e+00 4.8810083861e-01 2.2878932010e+00 -3.9627472664e+00 2.2878932010e+00 3.9627472664e+00 
4200 5.1608203162e+00 4.8250758569e-01 2.2772344915e+00 -3.9442858401e+00 2.2772344915e+00 3.9442858401e+00 
4300 5.1510708589e+00 4.7684691388e-01 2.2666485875e+00 -3.9259505164e+00 2.2666485875e+00 3.9259505164e+00 
4400 5.1415942332e+00 4.7114479940e-01 2.2561379953e+00 -3.9077456367e+00 2.2561379953e+00 3.9077456367e+00 
4500 5.1323924291e+00 4.6542118448e-01 2.2457046862e+00 -3.8896746152e+00 2.2457046862e+00 3.8896746152e+00 
4600 5.1234640824e+00 4.5969143797e-01 2.2353502172e+00 -3.8717401489e+00 2.2353502172e+00 3.8717401489e+00 
4700 5.1148054858e+00 4.5396746109e-01 2.2250758229e+00 -3.8539443760e+00 2.2250758229e+00 3.8539443760e+00 
4800 5.1064113441e+00 4.4825850977e-01 2.2148824852e+00 -3.8362889972e+00 2.2148824852e+00 3.8362889972e+00 
4900 5.0982753283e+00 4.4257180160e-01 2.2047709868e+00 -3.8187753683e+00 2.2047709868e+00 3.8187753683e+00 
5000 5.0903904785e+00 4.3691296414e-01 2.1947419524e+00 -3.8014045711e+00 2.1947419524e+00 3.8014045711e+00 
5100 5.0827494936e+00 4.3128636854e-01 2.1847958808e+00 -3.7841774698e+00 2.1847958808e+00 3.7841774698e+00 
5200 5.0753449371e+00 4.2569538136e-01 2.1749331709e+00 -3.7670947550e+00 2.1749331709e+00 3.7670947550e+00 
5300 5.0681693825e+00 4.2014255781e-01 2.1651541418e+00 -3.7501569799e+00 2.1651541418e+00 3.7501569799e+00 
5400 5.0612155131e+00 4.1462979315e-01 2.1554590501e+00 -3.7333645885e+00 2.1554590501e+00 3.7333645885e+00 
5500 5.0544761907e+00 4.0915844348e-01 2.1458481032e+00 -3.7167179401e+00 2.1458481032e+00 3.7167179401e+00 
5600 5.0479444997e+00 4.0372942400e-01 2.1363214709e+00 -3.7002173289e+00 2.1363214709e+00 3.7002173289e+00 
5700 5.0416137752e+00 3.9834329018e-01 2.1268792946e+00 -3.6838629998e+00 2.1268792946e+00 3.6838629998e+00 
5800 5.0354776183e+00 3.9300030566e-01 2.1175216952e+00 -3.6676551623e+00 2.1175216952e+00 3.6676551623e+00 
5900 5.0295299026e+00 3.8770049948e-01 2.1082487797e+00 -3.6515940014e+00 2.1082487797e+00 3.6515940014e+00 
6000 5.0237647744e+00 3.8244371486e-01 2.0990606456e+00 -3.6356796864e+00 2.0990606456e+00 3.6356796864e+00 
6100 5.0181766478e+00 3.7722965067e-01 2.0899573861e+00 -3.6199123783e+00 2.0899573861e+00 3.6199123783e+00 
6200 5.0127601978e+00 3.7205789699e-01 2.0809390926e+00 -3.6042922358e+00 2.0809390926e+00 3.6042922358e+00 
6300 5.0075103493e+00 3.6692796534e-01 2.0720058576e+00 -3.5888194190e+00 2.0720058576e+00 3.5888194190e+00 
6400 5.0024222662e+00 3.6183931454e-01 2.0631577767e+00 -3.5734940934e+00 2.0631577767e+00 3.5734940934e+00 
6500 4.9974913386e+00 3.5679137267e-01 2.0543949496e+00 -3.5583164315e+00 2.0543949496e+00 3.5583164315e+00 
6600 4.9927131693e+00 3.5178355547e-01 2.0457174809e+00 -3.5432866149e+00 2.0457174809e+00 3.5432866149e+00 
6700 4.9880835611e+00 3.4681528196e-01 2.0371254809e+00 -3.5284048343e+00 2.0371254809e+00 3.5284048343e+00 
6800 4.9835985027e+00 3.4188598723e-01 2.0286190649e+00 -3.5136712897e+00 2.0286190649e+00 3.5136712897e+00 
6900 4.9792541557e+00 3.3699513296e-01 2.0201983536e+00 -3.4990861898e+00 2.0201983536e+00 3.4990861898e+00 
7000 4.9750468416e+00 3.3214221600e-01 2.0118634720e+00 -3.4846497513e+00 2.0118634720e+00 3.4846497513e+00 
7100 4.9709730294e+00 3.2732677496e-01 2.0036145486e+00 -3.4703621969e+00 2.0036145486e+00 3.4703621969e+00 
7200 4.9670293233e+00 3.2254839537e-01 1.9954517147e+00 -3.4562237539e+00 1.9954517147e+00 3.4562237539e+00 
7300 4.9632124514e+00 3.1780671336e-01 1.9873751029e+00 -3.4422346519e+00 1.9873751029e+00 3.4422346519e+00 
7400 4.9595192551e+00 3.1310141820e-01 1.9793848460e+00 -3.4283951210e+00 1.9793848460e+00 3.4283951210e+00 
7500 4.9559466784e+00 3.0843225367e-01 1.9714810755e+00 -3.4147053889e+00 1.9714810755e+00 3.4147053889e+00 
7600 4.9524917588e+00 3.0379901865e-01 1.9636639201e+00 -3.4011656787e+00 1.9636639201e+00 3.4011656787e+00 
7700 4.9491516182e+00 2.9920156680e-01 1.9559335044e+00 -3.3877762058e+00 1.9559335044e+00 3.3877762058e+00 
7800 4.9459234552e+00 2.9463980559e-01 1.9482899470e+00 -3.3745371761e+00 1.9482899470e+00 3.3745371761e+00 
7900 4.9428045372e+00 2.9011369480e-01 1.9407333593e+00 -3.3614487823e+00 1.9407333593e+00 3.3614487823e+00 
8000 4.9397921936e+00 2.8562324446e-01 1.9332638439e+00 -3.3485112020e+00 1.9332638439e+00 3.3485112020e+00 
8100 4.9368838102e+00 2.8116851239e-01 1.9258814927e+00 -3.3357245948e+00 1.9258814927e+00 3.3357245948e+00 
8200 4.9340768233e+00 2.7674960148e-01 1.9185863861e+00 -3.3230890995e+00 1.9185863861e+00 3.3230890995e+00 
8300 4.9313687149e+00 2.7236665664e-01 1.9113785909e+00 -3.3106048320e+00 1.9113785909e+00 3.3106048320e+00 
8400 4.9287570087e+00 2.6801986151e-01 1.9042581593e+00 -3.2982718827e+00 1.9042581593e+00 3.2982718827e+00 
8500 4.9262392660e+00 2.6370943512e-01 1.8972251274e+00 -3.2860903141e+00 1.8972251274e+00 3.2860903141e+00 
8600 4.9238130829e+00 2.5943562839e-01 1.8902795141e+00 -3.2740601590e+00 1.8902795141e+00 3.2740601590e+00 
8700 4.9214760877e+00 2.5519872051e-01 1.8834213199e+00 -3.2621814181e+00 1.8834213199e+00 3.2621814181e+00 
8800 4.9192259385e+00 2.5099901542e-01 1.8766505254e+00 -3.2504540581e+00 1.8766505254e+00 3.2504540581e+00 
8900 4.9170603216e+00 2.4683683821e-01 1.8699670911e+00 -3.2388780103e+00 1.8699670911e+00 3.2388780103e+00 
9000 4.9149769500e+00 2.4271253159e-01 1.8633709557e+00 -3.2274531686e+00 1.8633709557e+00 3.2274531686e+00 
9100 4.9129735630e+00 2.3862645242e-01 1.8568620357e+00 -3.2161793884e+00 1.8568620357e+00 3.2161793884e+00 
9200 4.9110479248e+00 2.3457896836e-01 1.8504402244e+00 -3.2050564851e+00 1.8504402244e+00 3.2050564851e+00 
9300 4.9091978250e+00 2.3057045456e-01 1.8441053917e+00 -3.1940842329e+00 1.8441053917e+00 3.1940842329e+00 
9400 4.9074210777e+00 2.2660129053e-01 1.8378573827e+00 -3.1832623640e+00 1.8378573827e+00 3.1832623640e+00 
9500 4.9057155225e+00 2.2267185720e-01 1.8316960183e+00 -3.1725905678e+00 1.8316960183e+00 3.1725905678e+00 
9600 4.9040790245e+00 2.1878253395e-01 1.8256210940e+00 -3.1620684902e+00 1.8256210940e+00 3.1620684902e+00 
9700 4.9025094749e+00 2.1493369603e-01 1.8196323798e+00 -3.1516957329e+00 1.8196323798e+00 3.1516957329e+00 
9800 4.9010047916e+00 2.1112571196e-01 1.8137296202e+00 -3.1414718534e+00 1.8137296202e+00 3.1414718534e+00 
9900 4.8995629204e+00 2.0735894122e-01 1.8079125340e+00 -3.1313963645e+00 1.8079125340e+00 3.1313963645e+00 
10000 4.8981818356e+00 2.0363373202e-01 1.8021808140e+00 -3.1214687343e+00 1.8021808140e+00 3.1214687343e+00 
10100 4.8968595411e+00 1.9995041932e-01 1.7965341275e+00 -3.1116883863e+00 1.7965341275e+00 3.1116883863e+00 
10200 4.8955940715e+00 1.9630932301e-01 1.7909721159e+00 -3.1020546997e+00 1.7909721159e+00 3.1020546997e+00 
10300 4.8943834931e+00 1.9271074622e-01 1.7854943953e+00 -3.0925670094e+00 1.7854943953e+00 3.0925670094e+00 
10400 4.8932259047e+00 1.8915497384e-01 1.7801005566e+00 -3.0832246067e+00 1.7801005566e+00 3.0832246067e+00 
10500 4.8921194394e+00 1.8564227123e-01 1.7747901657e+00 -3.0740267398e+00 1.7747901657e+00 3.0740267398e+00 
10600 4.8910622648e+00 1.8217288301e-01 1.7695627639e+00 -3.0649726142e+00 1.7695627639e+00 3.0649726142e+00 
10700 4.8900525845e+00 1.7874703210e-01 1.7644178685e+00 -3.0560613940e+00 1.7644178685e+00 3.0560613940e+00 
10800 4.8890886389e+00 1.7536491885e-01 1.7593549731e+00 -3.0472922020e+00 1.7593549731e+00 3.0472922020e+00 
10900 4.8881687058e+00 1.7202672038e-01 1.7543735483e+00 -3.0386641212e+00 1.7543735483e+00 3.0386641212e+00 
11000 4.8872911017e+00 1.6873258997e-01 1.7494730421e+00 -3.0301761953e+00 1.7494730421e+00 3.0301761953e+00 
11100 4.8864541823e+00 1.6548265663e-01 1.7446528804e+00 -3.0218274304e+00 1.7446528804e+00 3.0218274304e+00 
11200 4.8856563431e+00 1.6227702486e-01 1.7399124681e+00 -3.0136167955e+00 1.7399124681e+00 3.0136167955e+00 
11300 4.8848960197e+00 1.5911577439e-01 1.7352511894e+00 -3.0055432239e+00 1.7352511894e+00 3.0055432239e+00 
11400 4.8841716889e+00 1.5599896014e-01 1.7306684085e+00 -2.9976056145e+00 1.7306684085e+00 2.9976056145e+00 
11500 4.8834818686e+00 1.5292661223e-01 1.7261634705e+00 -2.9898028331e+00 1.7261634705e+00 2.9898028331e+00 
11600 4.8828251179e+00 1.4989873612e-01 1.7217357022e+00 -2.9821337134e+00 1.7217357022e+00 2.9821337134e+00 
11700 4.8822000378e+00 1.4691531279e-01 1.7173844127e+00 -2.9745970589e+00 1.7173844127e+00 2.9745970589e+00 
11800 4.8816052711e+00 1.4397629905e-01 1.7131088942e+00 -2.9671916436e+00 1.7131088942e+00 2.9671916436e+00 
11900 4.8810395022e+00 1.4108162789e-01 1.7089084229e+00 -2.9599162140e+00 1.7089084229e+00 2.9599162140e+00 
12000 4.8805014571e+00 1.3823120889e-01 1.7047822600e+00 -2.9527694901e+00 1.7047822600e+00 2.9527694901e+00 
12100 4.8799899032e+00 1.3542492873e-01 1.7007296518e+00 -2.9457501669e+00 1.7007296518e+00 2.9457501669e+00 
12200 4.8795036494e+00 1.3266265171e-01 1.6967498315e+00 -2.9388569160e+00 1.6967498315e+00 2.9388569160e+00 
12300 4.8790415451e+00 1.2994422034e-01 1.6928420194e+00 -2.9320883868e+00 1.6928420194e+00 2.9320883868e+00 
12400 4.8786024802e+00 1.2726945595e-01 1.6890054238e+00 -2.9254432082e+00 1.6890054238e+00 2.9254432082e+00 
12500 4.8781853848e+00 1.2463815935e-01 1.6852392418e+00 -2.9189199897e+00 1.6852392418e+00 2.9189199897e+00 
12600 4.8777892281e+00 1.2205011155e-01 1.6815426605e+00 -2.9125173231e+00 1.6815426605e+00 2.9125173231e+00 
12700 4.8774130182e+00 1.1950507440e-01 1.6779148574e+00 -2.9062337838e+00 1.6779148574e+00 2.9062337838e+00 
12800 4.8770558014e+00 1.1700279141e-01 1.6743550012e+00 -2.9000679319e+00 1.6743550012e+00 2.9000679319e+00 
12900 4.8767166613e+00 1.1454298841e-01 1.6708622528e+00 -2.8940183143e+00 1.6708622528e+00 2.8940183143e+00 
13000 4.8763947182e+00 1.1212537437e-01 1.6674357661e+00 -2.8880834653e+00 1.6674357661e+00 2.8880834653e+00 
13100 4.8760891282e+00 1.0974964213e-01 1.6640746886e+00 -2.8822619083e+00 1.6640746886e+00 2.8822619083e+00 
13200 4.8757990825e+00 1.0741546922e-01 1.6607781622e+00 -2.8765521571e+00 1.6607781622e+00 2.8765521571e+00 
13300 4.8755238065e+00 1.0512251855e-01 1.6575453241e+00 -2.8709527171e+00 1.6575453241e+00 2.8709527171e+00 
13400 4.8752625587e+00 1.0287043925e-01 1.6543753071e+00 -2.8654620867e+00 1.6543753071e+00 2.8654620867e+00 
13500 4.8750146302e+00 1.0065886740e-01 1.6512672409e+00 -2.8600787582e+00 1.6512672409e+00 2.8600787582e+00 
13600 4.8747793432e+00 9.8487426824e-02 1.6482202525e+00 -2.8548012194e+00 1.6482202525e+00 2.8548012194e+00 
13700 4.8745560506e+00 9.6355729790e-02 1.6452334666e+00 -2.8496279545e+00 1.6452334666e+00 2.8496279545e+00 
13800 4.8743441349e+00 9.4263377792e-02 1.6423060069e+00 -2.8445574455e+00 1.6423060069e+00 2.8445574455e+00 
13900 4.8741430071e+00 9.2209962261e-02 1.6394369960e+00 -2.8395881729e+00 1.6394369960e+00 2.8395881729e+00 
14000 4.8739521058e+00 9.0195065281e-02 1.6366255566e+00 -2.8347186170e+00 1.6366255566e+00 2.8347186170e+00 
14100 4.8737708963e+00 8.8218260293e-02 1.6338708119e+00 -2.8299472592e+00 1.6338708119e+00 2.8299472592e+00 
14200 4.8735988697e+00 8.6279112774e-02 1.6311718859e+00 -2.8252725823e+00 1.6311718859e+00 2.8252725823e+00 
14300 4.8734355418e+00 8.4377180905e-02 1.6285279046e+00 -2.8206930723e+00 1.6285279046e+00 2.8206930723e+00 
14400 4.8732804523e+00 8.2512016226e-02 1.6259379958e+00 -2.8162072187e+00 1.6259379958e+00 2.8162072187e+00 
14500 4.8731331638e+00 8.0683164259e-02 1.6234012902e+00 -2.8118135157e+00 1.6234012902e+00 2.8118135157e+00 
14600 4.8729932609e+00 7.8890165126e-02 1.6209169214e+00 -2.8075104628e+00 1.6209169214e+00 2.8075104628e+00 
14700 4.8728603493e+00 7.7132554142e-02 1.6184840270e+00 -2.8032965660e+00 1.6184840270e+00 2.8032965660e+00 
14800 4.8727340551e+00 7.5409862388e-02 1.6161017483e+00 -2.7991703383e+00 1.6161017483e+00 2.7991703383e+00 
14900 4.8726140237e+00 7.3721617264e-02 1.6137692314e+00 -2.7951303006e+00 1.6137692314e+00 2.7951303006e+00 
15000 4.8724999189e+00 7.2067343029e-02 1.6114856273e+00 -2.7911749822e+00 1.6114856273e+00 2.7911749822e+00 
15100 4.8723914224e+00 7.0446561312e-02 1.6092500922e+00 -2.7873029218e+00 1.6092500922e+00 2.7873029218e+00 
15200 4.8722882329e+00 6.8858791607e-02 1.6070617882e+00 -2.7835126680e+00 1.6070617882e+00 2.7835126680e+00 
15300 4.8721900651e+00 6.7303551752e-02 1.6049198832e+00 -2.7798027798e+00 1.6049198832e+00 2.7798027798e+00 
15400 4.8720966491e+00 6.5780358385e-02 1.6028235519e+00 -2.7761718274e+00 1.6028235519e+00 2.7761718274e+00 
15500 4.8720077298e+00 6.4288727380e-02 1.6007719753e+00 -2.7726183926e+00 1.6007719753e+00 2.7726183926e+00 
15600 4.8719230661e+00 6.2828174266e-02 1.5987643418e+00 -2.7691410693e+00 1.5987643418e+00 2.7691410693e+00 
15700 4.8718424300e+00 6.1398214631e-02 1.5967998469e+00 -2.7657384643e+00 1.5967998469e+00 2.7657384643e+00 
15800 4.8717656063e+00 5.9998364495e-02 1.5948776936e+00 -2.7624091972e+00 1.5948776936e+00 2.7624091972e+00 
15900 4.8716923918e+00 5.8628140684e-02 1.5929970931e+00 -2.7591519016e+00 1.5929970931e+00 2.7591519016e+00 
16000 4.8716225946e+00 5.7287061170e-02 1.5911572643e+00 -2.7559652245e+00 1.5911572643e+00 2.7559652245e+00 
16100 4.8715560337e+00 5.5974645401e-02 1.5893574344e+00 -2.7528478278e+00 1.5893574344e+00 2.7528478278e+00 
16200 4.8714925382e+00 5.4690414617e-02 1.5875968393e+00 -2.7497983876e+00 1.5875968393e+00 2.7497983876e+00 
16300 4.8714319471e+00 5.3433892141e-02 1.5858747234e+00 -2.7468155954e+00 1.5858747234e+00 2.7468155954e+00 
16400 4.8713741085e+00 5.2204603663e-02 1.5841903400e+00 -2.7438981578e+00 1.5841903400e+00 2.7438981578e+00 
16500 4.8713188791e+00 5.1002077505e-02 1.5825429513e+00 -2.7410447969e+00 1.5825429513e+00 2.7410447969e+00 
16600 4.8712661240e+00 4.9825844870e-02 1.5809318288e+00 -2.7382542507e+00 1.5809318288e+00 2.7382542507e+00 
16700 4.8712157159e+00 4.8675440075e-02 1.5793562529e+00 -2.7355252734e+00 1.5793562529e+00 2.7355252734e+00 
16800 4.8711675349e+00 4.7550400779e-02 1.5778155139e+00 -2.7328566350e+00 1.5778155139e+00 2.7328566350e+00 
16900 4.8711214680e+00 4.6450268183e-02 1.5763089111e+00 -2.7302471225e+00 1.5763089111e+00 2.7302471225e+00 
17000 4.8710774088e+00 4.5374587230e-02 1.5748357536e+00 -2.7276955389e+00 1.5748357536e+00 2.7276955389e+00 
17100 4.8710352570e+00 4.4322906788e-02 1.5733953602e+00 -2.7252007042e+00 1.5733953602e+00 2.7252007042e+00 
17200 4.8709949181e+00 4.3294779812e-02 1.5719870591e+00 -2.7227614552e+00 1.5719870591e+00 2.7227614552e+00 
17300 4.8709563030e+00 4.2289763512e-02 1.5706101885e+00 -2.7203766454e+00 1.5706101885e+00 2.7203766454e+00 
17400 4.8709193278e+00 4.1307419491e-02 1.5692640965e+00 -2.7180451457e+00 1.5692640965e+00 2.7180451457e+00 
17500 4.8708839136e+00 4.0347313886e-02 1.5679481408e+00 -2.7157658435e+00 1.5679481408e+00 2.7157658435e+00 
17600 4.8708499858e+00 3.9409017489e-02 1.5666616891e+00 -2.7135376438e+00 1.5666616891e+00 2.7135376438e+00 
17700 4.8708174742e+00 3.8492105864e-02 1.5654041189e+00 -2.7113594684e+00 1.5654041189e+00 2.7113594684e+00 
17800 4.8707863126e+00 3.7596159454e-02 1.5641748177e+00 -2.7092302563e+00 1.5641748177e+00 2.7092302563e+00 
17900 4.8707564385e+00 3.6720763671e-02 1.5629731828e+00 -2.7071489635e+00 1.5629731828e+00 2.7071489635e+00 
18000 4.8707277932e+00 3.5865508987e-02 1.5617986214e+00 -2.7051145635e+00 1.5617986214e+00 2.7051145635e+00 
18100 4.8707003211e+00 3.5029991010e-02 1.5606505505e+00 -2.7031260463e+00 1.5606505505e+00 2.7031260463e+00 
18200 4.8706739697e+00 3.4213810555e-02 1.5595283970e+00 -2.7011824194e+00 1.5595283970e+00 2.7011824194e+00 
18300 4.8706486897e+00 3.3416573705e-02 1.5584315976e+00 -2.6992827071e+00 1.5584315976e+00 2.6992827071e+00 
18400 4.8706244342e+00 3.2637891865e-02 1.5573595987e+00 -2.6974259505e+00 1.5573595987e+00 2.6974259505e+00 
18500 4.8706011591e+00 3.1877381811e-02 1.5563118564e+00 -2.6956112077e+00 1.5563118564e+00 2.6956112077e+00 
18600 4.8705788227e+00 3.1134665725e-02 1.5552878366e+00 -2.6938375534e+00 1.5552878366e+00 2.6938375534e+00 
18700 4.8705573855e+00 3.0409371236e-02 1.5542870146e+00 -2.6921040789e+00 1.5542870146e+00 2.6921040789e+00 
18800 4.8705368101e+00 2.9701131440e-02 1.5533088755e+00 -2.6904098922e+00 1.5533088755e+00 2.6904098922e+00 
18900 4.8705170613e+00 2.9009584925e-02 1.5523529136e+00 -2.6887541176e+00 1.5523529136e+00 2.6887541176e+00 
19000 4.8704981054e+00 2.8334375787e-02 1.5514186327e+00 -2.6871358956e+00 1.5514186327e+00 2.6871358956e+00 
19100 4.8704799108e+00 2.7675153638e-02 1.5505055460e+00 -2.6855543831e+00 1.5505055460e+00 2.6855543831e+00 
19200 4.8704624473e+00 2.7031573609e-02 1.5496131758e+00 -2.6840087526e+00 1.5496131758e+00 2.6840087526e+00 
19300 4.8704456864e+00 2.6403296357e-02 1.5487410538e+00 -2.6824981929e+00 1.5487410538e+00 2.6824981929e+00 
19400 4.8704296008e+00 2.5789988053e-02 1.5478887204e+00 -2.6810219083e+00 1.5478887204e+00 2.6810219083e+00 
19500 4.8704141647e+00 2.5191320375e-02 1.5470557254e+00 -2.6795791185e+00 1.5470557254e+00 2.6795791185e+00 
19600 4.8703993536e+00 2.4606970497e-02 1.5462416270e+00 -2.6781690588e+00 1.5462416270e+00 2.6781690588e+00 
19700 4.8703851442e+00 2.4036621070e-02 1.5454459927e+00 -2.6767909797e+00 1.5454459927e+00 2.6767909797e+00 
19800 4.8703715141e+00 2.3479960198e-02 1.5446683983e+00 -2.6754441466e+00 1.5446683983e+00 2.6754441466e+00 
19900 4.8703584420e+00 2.2936681419e-02 1.5439084282e+00 -2.6741278399e+00 1.5439084282e+00 2.6741278399e+00 
20000 4.8703459078e+00 2.2406483673e-02 1.5431656756e+00 -2.6728413546e+00 1.5431656756e+00 2.6728413546e+00 
20100 4.8703338920e+00 2.1889071274e-02 1.5424397417e+00 -2.6715840002e+00 1.5424397417e+00 2.6715840002e+00 
20200 4.8703223761e+00 2.1384153872e-02 1.5417302361e+00 -2.6703551005e+00 1.5417302361e+00 2.6703551005e+00 
20300 4.8703113425e+00 2.0891446419e-02 1.5410367766e+00 -2.6691539934e+00 1.5410367766e+00 2.6691539934e+00 
20400 4.8703007741e+00 2.0410669128e-02 1.5403589889e+00 -2.6679800307e+00 1.5403589889e+00 2.6679800307e+00 
20500 4.8702906548e+00 1.9941547435e-02 1.5396965068e+00 -2.6668325780e+00 1.5396965068e+00 2.6668325780e+00 
20600 4.8702809688e+00 1.9483811949e-02 1.5390489718e+00 -2.6657110144e+00 1.5390489718e+00 2.6657110144e+00 
20700 4.8702717014e+00 1.9037198410e-02 1.5384160330e+00 -2.6646147323e+00 1.5384160330e+00 2.6646147323e+00 
20800 4.8702628380e+00 1.8601447639e-02 1.5377973472e+00 -2.6635431371e+00 1.5377973472e+00 2.6635431371e+00 
20900 4.8702543649e+00 1.8176305489e-02 1.5371925787e+00 -2.6624956474e+00 1.5371925787e+00 2.6624956474e+00 
21000 4.8702462688e+00 1.7761522791e-02 1.5366013991e+00 -2.6614716941e+00 1.5366013991e+00 2.6614716941e+00 
21100 4.8702385369e+00 1.7356855306e-02 1.5360234870e+00 -2.6604707211e+00 1.5360234870e+00 2.6604707211e+00 
21200 4.8702311568e+00 1.6962063664e-02 1.5354585285e+00 -2.6594921843e+00 1.5354585285e+00 2.6594921843e+00 
21300 4.8702241167e+00 1.6576913310e-02 1.5349062164e+00 -2.6585355517e+00 1.5349062164e+00 2.6585355517e+00 
21400 4.8702174051e+00 1.6201174449e-02 1.5343662505e+00 -2.6576003033e+00 1.5343662505e+00 2.6576003033e+00 
21500 4.8702110109e+00 1.5834621986e-02 1.5338383373e+00 -2.6566859307e+00 1.5338383373e+00 2.6566859307e+00 
21600 4.8702049235e+00 1.5477035466e-02 1.5333221898e+00 -2.6557919372e+00 1.5333221898e+00 2.6557919372e+00 
21700 4.8701991324e+00 1.5128199016e-02 1.5328175279e+00 -2.6549178371e+00 1.5328175279e+00 2.6549178371e+00 
21800 4.8701936277e+00 1.4787901280e-02 1.5323240776e+00 -2.6540631560e+00 1.5323240776e+00 2.6540631560e+00 
21900 4.8701883997e+00 1.4455935363e-02 1.5318415711e+00 -2.6532274303e+00 1.5318415711e+00 2.6532274303e+00 
22000 4.8701834391e+00 1.4132098763e-02 1.5313697471e+00 -2.6524102072e+00 1.5313697471e+00 2.6524102072e+00 
22100 4.8701787368e+00 1.3816193312e-02 1.5309083501e+00 -2.6516110441e+00 1.5309083501e+00 2.6516110441e+00 
22200 4.8701742839e+00 1.3508025114e-02 1.5304571306e+00 -2.6508295090e+00 1.5304571306e+00 2.6508295090e+00 
22300 4.8701700721e+00 1.3207404474e-02 1.5300158449e+00 -2.6500651798e+00 1.5300158449e+00 2.6500651798e+00 
22400 4.8701660929e+00 1.2914145844e-02 1.5295842552e+00 -2.6493176444e+00 1.5295842552e+00 2.6493176444e+00 
22500 4.8701623385e+00 1.2628067751e-02 1.5291621290e+00 -2.6485865004e+00 1.5291621290e+00 2.6485865004e+00 
22600 4.8701588010e+00 1.2348992738e-02 1.5287492395e+00 -2.6478713548e+00 1.5287492395e+00 2.6478713548e+00 
22700 4.8701554729e+00 1.2076747297e-02 1.5283453652e+00 -2.6471718241e+00 1.5283453652e+00 2.6471718241e+00 
22800 4.8701523469e+00 1.1811161805e-02 1.5279502900e+00 -2.6464875338e+00 1.5279502900e+00 2.6464875338e+00 
22900 4.8701494159e+00 1.1552070459e-02 1.5275638029e+00 -2.6458181184e+00 1.5275638029e+00 2.6458181184e+00 
23000 4.8701466730e+00 1.1299311215e-02 1.5271856978e+00 -2.6451632211e+00 1.5271856978e+00 2.6451632211e+00 
23100 4.8701441114e+00 1.1052725720e-02 1.5268157737e+00 -2.6445224938e+00 1.5268157737e+00 2.6445224938e+00 
23200 4.8701417248e+00 1.0812159250e-02 1.5264538345e+00 -2.6438955968e+00 1.5264538345e+00 2.6438955968e+00 
23300 4.8701395068e+00 1.0577460647e-02 1.5260996888e+00 -2.6432821984e+00 1.5260996888e+00 2.6432821984e+00 
23400 4.8701374512e+00 1.0348482254e-02 1.5257531498e+00 -2.6426819753e+00 1.5257531498e+00 2.6426819753e+00 
23500 4.8701355521e+00 1.0125079852e-02 1.5254140354e+00 -2.6420946119e+00 1.5254140354e+00 2.6420946119e+00 
23600 4.8701338036e+00 9.9071125995e-03 1.5250821677e+00 -2.6415198002e+00 1.5250821677e+00 2.6415198002e+00 
23700 4.8701322003e+00 9.6944429666e-03 1.5247573734e+00 -2.6409572399e+00 1.5247573734e+00 2.6409572399e+00 
23800 4.8701307366e+00 9.4869366765e-03 1.5244394833e+00 -2.6404066381e+00 1.5244394833e+00 2.6404066381e+00 
23900 4.8701294072e+00 9.2844626423e-03 1.5241283324e+00 -2.6398677089e+00 1.5241283324e+00 2.6398677089e+00 
24000 4.8701282069e+00 9.0868929060e-03 1.5238237598e+00 -2.6393401738e+00 1.5238237598e+00 2.6393401738e+00 
24100 4.8701271309e+00 8.8941025787e-03 1.5235256086e+00 -2.6388237608e+00 1.5235256086e+00 2.6388237608e+00 
24200 4.8701261741e+00 8.7059697802e-03 1.5232337258e+00 -2.6383182050e+00 1.5232337258e+00 2.6383182050e+00 
24300 4.8701253320e+00 8.5223755799e-03 1.5229479622e+00 -2.6378232478e+00 1.5229479622e+00 2.6378232478e+00 
24400 4.8701245999e+00 8.3432039379e-03 1.5226681721e+00 -2.6373386371e+00 1.5226681721e+00 2.6373386371e+00 
24500 4.8701239734e+00 8.1683416469e-03 1.5223942137e+00 -2.6368641273e+00 1.5223942137e+00 2.6368641273e+00 
24600 4.8701234481e+00 7.9976782749e-03 1.5221259487e+00 -2.6363994787e+00 1.5221259487e+00 2.6363994787e+00 
24700 4.8701230200e+00 7.8311061077e-03 1.5218632422e+00 -2.6359444577e+00 1.5218632422e+00 2.6359444577e+00 
24800 4.8701226849e+00 7.6685200935e-03 1.5216059627e+00 -2.6354988364e+00 1.5216059627e+00 2.6354988364e+00 
24900 4.8701224390e+00 7.5098177867e-03 1.5213539819e+00 -2.6350623930e+00 1.5213539819e+00 2.6350623930e+00 
25000 4.8701222783e+00 7.3548992934e-03 1.5211071750e+00 -2.6346349108e+00 1.5211071750e+00 2.6346349108e+00 
25100 4.8701221993e+00 7.2036672172e-03 1.5208654200e+00 -2.6342161789e+00 1.5208654200e+00 2.6342161789e+00 
25200 4.8701221983e+00 7.0560266057e-03 1.5206285982e+00 -2.6338059916e+00 1.5206285982e+00 2.6338059916e+00 
25300 4.8701222718e+00 6.9118848976e-03 1.5203965939e+00 -2.6334041484e+00 1.5203965939e+00 2.6334041484e+00 
25400 4.8701224166e+00 6.7711518713e-03 1.5201692943e+00 -2.6330104538e+00 1.5201692943e+00 2.6330104538e+00 
25500 4.8701226293e+00 6.6337395930e-03 1.5199465893e+00 -2.6326247174e+00 1.5199465893e+00 2.6326247174e+00 
25600 4.8701229069e+00 6.4995623666e-03 1.5197283717e+00 -2.6322467535e+00 1.5197283717e+00 2.6322467535e+00 
25700 4.8701232462e+00 6.3685366840e-03 1.5195145371e+00 -2.6318763811e+00 1.5195145371e+00 2.6318763811e+00 
25800 4.8701236443e+00 6.2405811756e-03 1.5193049837e+00 -2.6315134239e+00 1.5193049837e+00 2.6315134239e+00 
25900 4.8701240984e+00 6.1156165629e-03 1.5190996121e+00 -2.6311577099e+00 1.5190996121e+00 2.6311577099e+00 
26000 4.8701246057e+00 5.9935656103e-03 1.5188983257e+00 -2.6308090717e+00 1.5188983257e+00 2.6308090717e+00 
26100 4.8701251635e+00 5.8743530786e-03 1.5187010302e+00 -2.6304673459e+00 1.5187010302e+00 2.6304673459e+00 
26200 4.8701257693e+00 5.7579056794e-03 1.5185076338e+00 -2.6301323733e+00 1.5185076338e+00 2.6301323733e+00 
26300 4.8701264205e+00 5.6441520295e-03 1.5183180468e+00 -2.6298039990e+00 1.5183180468e+00 2.6298039990e+00 
26400 4.8701271149e+00 5.5330226066e-03 1.5181321820e+00 -2.6294820718e+00 1.5181321820e+00 2.6294820718e+00 
26500 4.8701278499e+00 5.4244497060e-03 1.5179499544e+00 -2.6291664443e+00 1.5179499544e+00 2.6291664443e+00 
26600 4.8701286236e+00 5.3183673970e-03 1.5177712811e+00 -2.6288569731e+00 1.5177712811e+00 2.6288569731e+00 
26700 4.8701294335e+00 5.2147114817e-03 1.5175960812e+00 -2.6285535181e+00 1.5175960812e+00 2.6285535181e+00 
26800 4.8701302778e+00 5.1134194528e-03 1.5174242762e+00 -2.6282559430e+00 1.5174242762e+00 2.6282559430e+00 
26900 4.8701311543e+00 5.0144304535e-03 1.5172557892e+00 -2.6279641150e+00 1.5172557892e+00 2.6279641150e+00 
27000 4.8701320612e+00 4.9176852376e-03 1.5170905455e+00 -2.6276779045e+00 1.5170905455e+00 2.6276779045e+00 
27100 4.8701329965e+00 4.8231261301e-03 1.5169284722e+00 -2.6273971853e+00 1.5169284722e+00 2.6273971853e+00 
27200 4.8701339586e+00 4.7306969892e-03 1.5167694983e+00 -2.6271218344e+00 1.5167694983e+00 2.6271218344e+00 
27300 4.8701349456e+00 4.6403431685e-03 1.5166135545e+00 -2.6268517318e+00 1.5166135545e+00 2.6268517318e+00 
27400 4.8701359559e+00 4.5520114799e-03 1.5164605733e+00 -2.6265867607e+00 1.5164605733e+00 2.6265867607e+00 
27500 4.8701369879e+00 4.4656501578e-03 1.5163104891e+00 -2.6263268072e+00 1.5163104891e+00 2.6263268072e+00 
27600 4.8701380401e+00 4.3812088234e-03 1.5161632377e+00 -2.6260717602e+00 1.5161632377e+00 2.6260717602e+00 
27700 4.8701391110e+00 4.2986384502e-03 1.5160187566e+00 -2.6258215116e+00 1.5160187566e+00 2.6258215116e+00 
27800 4.8701401992e+00 4.2178913296e-03 1.5158769848e+00 -2.6255759558e+00 1.5158769848e+00 2.6255759558e+00 
27900 4.8701413033e+00 4.1389210379e-03 1.5157378632e+00 -2.6253349900e+00 1.5157378632e+00 2.6253349900e+00 
28000 4.8701424220e+00 4.0616824033e-03 1.5156013337e+00 -2.6250985139e+00 1.5156013337e+00 2.6250985139e+00 
28100 4.8701435541e+00 3.9861314743e-03 1.5154673399e+00 -2.6248664299e+00 1.5154673399e+00 2.6248664299e+00 
28200 4.8701446984e+00 3.9122254884e-03 1.5153358269e+00 -2.6246386427e+00 1.5153358269e+00 2.6246386427e+00 
28300 4.8701458536e+00 3.8399228409e-03 1.5152067410e+00 -2.6244150593e+00 1.5152067410e+00 2.6244150593e+00 
28400 4.8701470188e+00 3.7691830559e-03 1.5150800299e+00 -2.6241955893e+00 1.5150800299e+00 2.6241955893e+00 
28500 4.8701481929e+00 3.6999667560e-03 1.5149556427e+00 -2.6239801444e+00 1.5149556427e+00 2.6239801444e+00 
28600 4.8701493748e+00 3.6322356344e-03 1.5148335296e+00 -2.6237686384e+00 1.5148335296e+00 2.6237686384e+00 
28700 4.8701505636e+00 3.5659524264e-03 1.5147136423e+00 -2.6235609874e+00 1.5147136423e+00 2.6235609874e+00 
28800 4.8701517584e+00 3.5010808820e-03 1.5145959334e+00 -2.6233571095e+00 1.5145959334e+00 2.6233571095e+00 
28900 4.8701529582e+00 3.4375857396e-03 1.5144803568e+00 -2.6231569250e+00 1.5144803568e+00 2.6231569250e+00 
29000 4.8701541624e+00 3.3754326991e-03 1.5143668676e+00 -2.6229603560e+00 1.5143668676e+00 2.6229603560e+00 
29100 4.8701553699e+00 3.3145883969e-03 1.5142554220e+00 -2.6227673265e+00 1.5142554220e+00 2.6227673265e+00 
29200 4.8701565801e+00 3.2550203804e-03 1.5141459771e+00 -2.6225777625e+00 1.5141459771e+00 2.6225777625e+00 
29300 4.8701577923e+00 3.1966970840e-03 1.5140384914e+00 -2.6223915917e+00 1.5140384914e+00 2.6223915917e+00 
29400 4.8701590057e+00 3.1395878050e-03 1.5139329241e+00 -2.6222087438e+00 1.5139329241e+00 2.6222087438e+00 
29500 4.8701602197e+00 3.0836626803e-03 1.5138292355e+00 -2.6220291498e+00 1.5138292355e+00 2.6220291498e+00 
29600 4.8701614337e+00 3.0288926639e-03 1.5137273869e+00 -2.6218527429e+00 1.5137273869e+00 2.6218527429e+00 
29700 4.8701626470e+00 2.9752495043e-03 1.5136273405e+00 -2.6216794574e+00 1.5136273405e+00 2.6216794574e+00 
29800 4.8701638591e+00 2.9227057231e-03 1.5135290594e+00 -2.6215092297e+00 1.5135290594e+00 2.6215092297e+00 
29900 4.8701650695e+00 2.8712345939e-03 1.5134325078e+00 -2.6213419973e+00 1.5134325078e+00 2.6213419973e+00 
30000 4.8701662776e+00 2.8208101214e-03 1.5133376504e+00 -2.6211776995e+00 1.5133376504e+00 2.6211776995e+00 
30100 4.8701674829e+00 2.7714070215e-03 1.5132444531e+00 -2.6210162770e+00 1.5132444531e+00 2.6210162770e+00 
30200 4.8701686851e+00 2.7230007017e-03 1.5131528823e+00 -2.6208576718e+00 1.5131528823e+00 2.6208576718e+00 
30300 4.8701698836e+00 2.6755672417e-03 1.5130629055e+00 -2.6207018273e+00 1.5130629055e+00 2.6207018273e+00 
30400 4.8701710780e+00 2.6290833749e-03 1.5129744907e+00 -2.6205486885e+00 1.5129744907e+00 2.6205486885e+00 
30500 4.8701722681e+00 2.5835264701e-03 1.5128876070e+00 -2.6203982014e+00 1.5128876070e+00 2.6203982014e+00 
30600 4.8701734533e+00 2.5388745141e-03 1.5128022238e+00 -2.6202503135e+00 1.5128022238e+00 2.6202503135e+00 
30700 4.8701746333e+00 2.4951060939e-03 1.5127183116e+00 -2.6201049733e+00 1.5127183116e+00 2.6201049733e+00 
30800 4.8701758079e+00 2.4522003801e-03 1.5126358414e+00 -2.6199621307e+00 1.5126358414e+00 2.6199621307e+00 
30900 4.8701769767e+00 2.4101371105e-03 1.5125547850e+00 -2.6198217368e+00 1.5125547850e+00 2.6198217368e+00 
31000 4.8701781394e+00 2.3688965741e-03 1.5124751146e+00 -2.6196837437e+00 1.5124751146e+00 2.6196837437e+00 
31100 4.8701792958e+00 2.3284595954e-03 1.5123968034e+00 -2.6195481046e+00 1.5123968034e+00 2.6195481046e+00 
31200 4.8701804455e+00 2.2888075193e-03 1.5123198249e+00 -2.6194147740e+00 1.5123198249e+00 2.6194147740e+00 
31300 4.8701815885e+00 2.2499221966e-03 1.5122441534e+00 -2.6192837072e+00 1.5122441534e+00 2.6192837072e+00 
31400 4.8701827244e+00 2.2117859689e-03 1.5121697639e+00 -2.6191548607e+00 1.5121697639e+00 2.6191548607e+00 
31500 4.8701838531e+00 2.1743816553e-03 1.5120966316e+00 -2.6190281919e+00 1.5120966316e+00 2.6190281919e+00 
31600 4.8701849743e+00 2.1376925385e-03 1.5120247326e+00 -2.6189036592e+00 1.5120247326e+00 2.6189036592e+00 
31700 4.8701860879e+00 2.1017023515e-03 1.5119540434e+00 -2.6187812219e+00 1.5119540434e+00 2.6187812219e+00 
31800 4.8701871937e+00 2.0663952645e-03 1.5118845411e+00 -2.6186608404e+00 1.5118845411e+00 2.6186608404e+00 
31900 4.8701882916e+00 2.0317558729e-03 1.5118162032e+00 -2.6185424757e+00 1.5118162032e+00 2.6185424757e+00 
32000 4.8701893814e+00 1.9977691844e-03 1.5117490079e+00 -2.6184260899e+00 1.5117490079e+00 2.6184260899e+00 
32100 4.8701904631e+00 1.9644206076e-03 1.5116829336e+00 -2.6183116459e+00 1.5116829336e+00 2.6183116459e+00 
32200 4.8701915364e+00 1.9316959403e-03 1.5116179594e+00 -2.6181991074e+00 1.5116179594e+00 2.6181991074e+00 
32300 4.8701926013e+00 1.8995813580e-03 1.5115540649e+00 -2.6180884388e+00 1.5115540649e+00 2.6180884388e+00 
32400 4.8701936577e+00 1.8680634033e-03 1.5114912300e+00 -2.6179796055e+00 1.5114912300e+00 2.6179796055e+00 
32500 4.8701947055e+00 1.8371289752e-03 1.5114294350e+00 -2.6178725735e+00 1.5114294350e+00 2.6178725735e+00 
32600 4.8701957446e+00 1.8067653187e-03 1.5113686609e+00 -2.6177673096e+00 1.5113686609e+00 2.6177673096e+00 
32700 4.8701967750e+00 1.7769600145e-03 1.5113088888e+00 -2.6176637813e+00 1.5113088888e+00 2.6176637813e+00 
32800 4.8701977966e+00 1.7477009698e-03 1.5112501004e+00 -2.6175619568e+00 1.5112501004e+00 2.6175619568e+00 
32900 4.8701988093e+00 1.7189764083e-03 1.5111922777e+00 -2.6174618050e+00 1.5111922777e+00 2.6174618050e+00 
33000 4.8701998132e+00 1.6907748613e-03 1.5111354032e+00 -2.6173632955e+00 1.5111354032e+00 2.6173632955e+00 
33100 4.8702008081e+00 1.6630851584e-03 1.5110794597e+00 -2.6172663985e+00 1.5110794597e+00 2.6172663985e+00 
33200 4.8702017940e+00 1.6358964191e-03 1.5110244303e+00 -2.6171710848e+00 1.5110244303e+00 2.6171710848e+00 
33300 4.8702027710e+00 1.6091980445e-03 1.5109702986e+00 -2.6170773260e+00 1.5109702986e+00 2.6170773260e+00 
33400 4.8702037389e+00 1.5829797084e-03 1.5109170485e+00 -2.6169850940e+00 1.5109170485e+00 2.6169850940e+00 
33500 4.8702046978e+00 1.5572313500e-03 1.5108646640e+00 -2.6168943615e+00 1.5108646640e+00 2.6168943615e+00 
33600 4.8702056478e+00 1.5319431659e-03 1.5108131299e+00 -2.6168051017e+00 1.5108131299e+00 2.6168051017e+00 
33700 4.8702065886e+00 1.5071056026e-03 1.5107624309e+00 -2.6167172885e+00 1.5107624309e+00 2.6167172885e+00 
33800 4.8702075205e+00 1.4827093491e-03 1.5107125522e+00 -2.6166308960e+00 1.5107125522e+00 2.6166308960e+00 
33900 4.8702084434e+00 1.4587453299e-03 1.5106634793e+00 -2.6165458992e+00 1.5106634793e+00 2.6165458992e+00 
34000 4.8702093572e+00 1.4352046984e-03 1.5106151979e+00 -2.6164622735e+00 1.5106151979e+00 2.6164622735e+00 
34100 4.8702102621e+00 1.4120788295e-03 1.5105676942e+00 -2.6163799946e+00 1.5105676942e+00 2.6163799946e+00 
34200 4.8702111580e+00 1.3893593140e-03 1.5105209544e+00 -2.6162990390e+00 1.5105209544e+00 2.6162990390e+00 
34300 4.8702120449e+00 1.3670379516e-03 1.5104749652e+00 -2.6162193834e+00 1.5104749652e+00 2.6162193834e+00 
34400 4.8702129230e+00 1.3451067452e-03 1.5104297135e+00 -2.6161410051e+00 1.5104297135e+00 2.6161410051e+00 
34500 4.8702137921e+00 1.3235578948e-03 1.5103851865e+00 -2.6160638820e+00 1.5103851865e+00 2.6160638820e+00 
34600 4.8702146524e+00 1.3023837920e-03 1.5103413714e+00 -2.6159879921e+00 1.5103413714e+00 2.6159879921e+00 
34700 4.8702155039e+00 1.2815770141e-03 1.5102982561e+00 -2.6159133142e+00 1.5102982561e+00 2.6159133142e+00 
34800 4.8702163467e+00 1.2611303187e-03 1.5102558284e+00 -2.6158398271e+00 1.5102558284e+00 2.6158398271e+00 
34900 4.8702171807e+00 1.2410366391e-03 1.5102140763e+00 -2.6157675105e+00 1.5102140763e+00 2.6157675105e+00 
35000 4.8702180060e+00 1.2212890783e-03 1.5101729884e+00 -2.6156963442e+00 1.5101729884e+00 2.6156963442e+00 
35100 4.8702188227e+00 1.2018809047e-03 1.5101325532e+00 -2.6156263083e+00 1.5101325532e+00 2.6156263083e+00 
35200 4.8702196308e+00 1.1828055471e-03 1.5100927595e+00 -2.6155573836e+00 1.5100927595e+00 2.6155573836e+00 
35300 4.8702204303e+00 1.1640565901e-03 1.5100535963e+00 -2.6154895510e+00 1.5100535963e+00 2.6154895510e+00 
35400 4.8702212214e+00 1.1456277697e-03 1.5100150529e+00 -2.6154227919e+00 1.5100150529e+00 2.6154227919e+00 
35500 4.8702220040e+00 1.1275129687e-03 1.5099771188e+00 -2.6153570880e+00 1.5099771188e+00 2.6153570880e+00 
35600 4.8702227782e+00 1.1097062130e-03 1.5099397835e+00 -2.6152924214e+00 1.5099397835e+00 2.6152924214e+00 
35700 4.8702235442e+00 1.0922016667e-03 1.5099030369e+00 -2.6152287745e+00 1.5099030369e+00 2.6152287745e+00 
35800 4.8702243018e+00 1.0749936289e-03 1.5098668691e+00 -2.6151661300e+00 1.5098668691e+00 2.6151661300e+00 
35900 4.8702250513e+00 1.0580765296e-03 1.5098312703e+00 -2.6151044711e+00 1.5098312703e+00 2.6151044711e+00 
36000 4.8702257926e+00 1.0414449258e-03 1.5097962309e+00 -2.6150437810e+00 1.5097962309e+00 2.6150437810e+00 
36100 4.8702265258e+00 1.0250934980e-03 1.5097617415e+00 -2.6149840435e+00 1.5097617415e+00 2.6149840435e+00 
36200 4.8702272510e+00 1.0090170470e-03 1.5097277927e+00 -2.6149252426e+00 1.5097277927e+00 2.6149252426e+00 
36300 4.8702279683e+00 9.9321048994e-04 1.5096943757e+00 -2.6148673626e+00 1.5096943757e+00 2.6148673626e+00 
36400 4.8702286777e+00 9.7766885764e-04 1.5096614814e+00 -2.6148103880e+00 1.5096614814e+00 2.6148103880e+00 
36500 4.8702293792e+00 9.6238729096e-04 1.5096291011e+00 -2.6147543037e+00 1.5096291011e+00 2.6147543037e+00 
36600 4.8702300730e+00 9.4736103793e-04 1.5095972262e+00 -2.6146990948e+00 1.5095972262e+00 2.6146990948e+00 
36700 4.8702307590e+00 9.3258545074e-04 1.5095658484e+00 -2.6146447468e+00 1.5095658484e+00 2.6146447468e+00 
36800 4.8702314375e+00 9.1805598285e-04 1.5095349593e+00 -2.6145912453e+00 1.5095349593e+00 2.6145912453e+00 
36900 4.8702321083e+00 9.0376818616e-04 1.5095045508e+00 -2.6145385763e+00 1.5095045508e+00 2.6145385763e+00 
37000 4.8702327717e+00 8.8971770837e-04 1.5094746150e+00 -2.6144867260e+00 1.5094746150e+00 2.6144867260e+00 
37100 4.8702334276e+00 8.7590029029e-04 1.5094451440e+00 -2.6144356807e+00 1.5094451440e+00 2.6144356807e+00 
37200 4.8702340762e+00 8.6231176334e-04 1.5094161301e+00 -2.6143854271e+00 1.5094161301e+00 2.6143854271e+00 
37300 4.8702347175e+00 8.4894804707e-04 1.5093875658e+00 -2.6143359523e+00 1.5093875658e+00 2.6143359523e+00 
37400 4.8702353515e+00 8.3580514677e-04 1.5093594436e+00 -2.6142872432e+00 1.5093594436e+00 2.6142872432e+00 
37500 4.8702359784e+00 8.2287915121e-04 1.5093317563e+00 -2.6142392874e+00 1.5093317563e+00 2.6142392874e+00 
37600 4.8702365982e+00 8.1016623032e-04 1.5093044967e+00 -2.6141920723e+00 1.5093044967e+00 2.6141920723e+00 
37700 4.8702372110e+00 7.9766263312e-04 1.5092776577e+00 -2.6141455858e+00 1.5092776577e+00 2.6141455858e+00 
37800 4.8702378168e+00 7.8536468555e-04 1.5092512324e+00 -2.6140998160e+00 1.5092512324e+00 2.6140998160e+00 
37900 4.8702384157e+00 7.7326878848e-04 1.5092252142e+00 -2.6140547510e+00 1.5092252142e+00 2.6140547510e+00 
38000 4.8702390078e+00 7.6137141573e-04 1.5091995962e+00 -2.6140103793e+00 1.5091995962e+00 2.6140103793e+00 
38100 4.8702395932e+00 7.4966911215e-04 1.5091743719e+00 -2.6139666896e+00 1.5091743719e+00 2.6139666896e+00 
38200 4.8702401718e+00 7.3815849182e-04 1.5091495349e+00 -2.6139236707e+00 1.5091495349e+00 2.6139236707e+00 
38300 4.8702407438e+00 7.2683623624e-04 1.5091250789e+00 -2.6138813116e+00 1.5091250789e+00 2.6138813116e+00 
38400 4.8702413093e+00 7.1569909256e-04 1.5091009975e+00 -2.6138396015e+00 1.5091009975e+00 2.6138396015e+00 
38500 4.8702418683e+00 7.0474387198e-04 1.5090772848e+00 -2.6137985299e+00 1.5090772848e+00 2.6137985299e+00 
38600 4.8702424209e+00 6.9396744809e-04 1.5090539347e+00 -2.6137580863e+00 1.5090539347e+00 2.6137580863e+00 
38700 4.8702429671e+00 6.8336675528e-04 1.5090309413e+00 -2.6137182606e+00 1.5090309413e+00 2.6137182606e+00 
38800 4.8702435070e+00 6.7293878725e-04 1.5090082988e+00 -2.6136790426e+00 1.5090082988e+00 2.6136790426e+00 
38900 4.8702440407e+00 6.6268059551e-04 1.5089860015e+00 -2.6136404225e+00 1.5089860015e+00 2.6136404225e+00 
39000 4.8702445682e+00 6.5258928799e-04 1.5089640437e+00 -2.6136023905e+00 1.5089640437e+00 2.6136023905e+00 
39100 4.8702450896e+00 6.4266202761e-04 1.5089424200e+00 -2.6135649372e+00 1.5089424200e+00 2.6135649372e+00 
39200 4.8702456050e+00 6.3289603097e-04 1.5089211250e+00 -2.6135280531e+00 1.5089211250e+00 2.6135280531e+00 
39300 4.8702461145e+00 6.2328856704e-04 1.5089001532e+00 -2.6134917289e+00 1.5089001532e+00 2.6134917289e+00 
39400 4.8702466180e+00 6.1383695590e-04 1.5088794995e+00 -2.6134559557e+00 1.5088794995e+00 2.6134559557e+00 
39500 4.8702471157e+00 6.0453856754e-04 1.5088591587e+00 -2.6134207244e+00 1.5088591587e+00 2.6134207244e+00 
39600 4.8702476076e+00 5.9539082065e-04 1.5088391258e+00 -2.6133860264e+00 1.5088391258e+00 2.6133860264e+00 
39700 4.8702480938e+00 5.8639118150e-04 1.5088193958e+00 -2.6133518529e+00 1.5088193958e+00 2.6133518529e+00 
39800 4.8702485743e+00 5.7753716280e-04 1.5087999637e+00 -2.6133181956e+00 1.5087999637e+00 2.6133181956e+00 
39900 4.8702490493e+00 5.6882632266e-04 1.5087808248e+00 -2.6132850460e+00 1.5087808248e+00 2.6132850460e+00 
40000 4.8702495187e+00 5.6025626353e-04 1.5087619743e+00 -2.6132523960e+00 1.5087619743e+00 2.6132523960e+00 
40100 4.8702499826e+00 5.5182463118e-04 1.5087434076e+00 -2.6132202375e+00 1.5087434076e+00 2.6132202375e+00 
40200 4.8702504411e+00 5.4352911373e-04 1.5087251200e+00 -2.6131885626e+00 1.5087251200e+00 2.6131885626e+00 
40300 4.8702508943e+00 5.3536744071e-04 1.5087071072e+00 -2.6131573635e+00 1.5087071072e+00 2.6131573635e+00 
40400 4.8702513422e+00 5.2733738211e-04 1.5086893647e+00 -2.6131266324e+00 1.5086893647e+00 2.6131266324e+00 
40500 4.8702517848e+00 5.1943674750e-04 1.5086718880e+00 -2.6130963620e+00 1.5086718880e+00 2.6130963620e+00 
40600 4.8702522223e+00 5.1166338519e-04 1.5086546730e+00 -2.6130665448e+00 1.5086546730e+00 2.6130665448e+00 
40700 4.8702526546e+00 5.0401518133e-04 1.5086377155e+00 -2.6130371734e+00 1.5086377155e+00 2.6130371734e+00 
40800 4.8702530819e+00 4.9649005913e-04 1.5086210112e+00 -2.6130082407e+00 1.5086210112e+00 2.6130082407e+00 
40900 4.8702535042e+00 4.8908597809e-04 1.5086045561e+00 -2.6129797397e+00 1.5086045561e+00 2.6129797397e+00 
41000 4.8702539215e+00 4.8180093316e-04 1.5085883463e+00 -2.6129516634e+00 1.5085883463e+00 2.6129516634e+00 
41100 4.8702543339e+00 4.7463295407e-04 1.5085723777e+00 -2.6129240050e+00 1.5085723777e+00 2.6129240050e+00 
41200 4.8702547415e+00 4.6758010455e-04 1.5085566465e+00 -2.6128967579e+00 1.5085566465e+00 2.6128967579e+00 
41300 4.8702551443e+00 4.6064048164e-04 1.5085411489e+00 -2.6128699153e+00 1.5085411489e+00 2.6128699153e+00 
41400 4.8702555424e+00 4.5381221503e-04 1.5085258812e+00 -2.6128434708e+00 1.5085258812e+00 2.6128434708e+00 
41500 4.8702559357e+00 4.4709346635e-04 1.5085108397e+00 -2.6128174181e+00 1.5085108397e+00 2.6128174181e+00 
41600 4.8702563245e+00 4.4048242857e-04 1.5084960207e+00 -2.6127917508e+00 1.5084960207e+00 2.6127917508e+00 
41700 4.8702567087e+00 4.3397732533e-04 1.5084814206e+00 -2.6127664628e+00 1.5084814206e+00 2.6127664628e+00 
41800 4.8702570883e+00 4.2757641037e-04 1.5084670361e+00 -2.6127415480e+00 1.5084670361e+00 2.6127415480e+00 
41900 4.8702574635e+00 4.2127796691e-04 1.5084528636e+00 -2.6127170005e+00 1.5084528636e+00 2.6127170005e+00 
42000 4.8702578343e+00 4.1508030706e-04 1.5084388997e+00 -2.6126928143e+00 1.5084388997e+00 2.6126928143e+00 
42100 4.8702582007e+00 4.0898177129e-04 1.5084251411e+00 -2.6126689838e+00 1.5084251411e+00 2.6126689838e+00 
42200 4.8702585628e+00 4.0298072788e-04 1.5084115845e+00 -2.6126455031e+00 1.5084115845e+00 2.6126455031e+00 
42300 4.8702589206e+00 3.9707557237e-04 1.5083982268e+00 -2.6126223668e+00 1.5083982268e+00 2.6126223668e+00 
42400 4.8702592742e+00 3.9126472703e-04 1.5083850646e+00 -2.6125995693e+00 1.5083850646e+00 2.6125995693e+00 
42500 4.8702596236e+00 3.8554664042e-04 1.5083720950e+00 -2.6125771052e+00 1.5083720950e+00 2.6125771052e+00 
42600 4.8702599689e+00 3.7991978683e-04 1.5083593148e+00 -2.6125549692e+00 1.5083593148e+00 2.6125549692e+00 
42700 4.8702603101e+00 3.7438266581e-04 1.5083467210e+00 -2.6125331562e+00 1.5083467210e+00 2.6125331562e+00 
42800 4.8702606473e+00 3.6893380176e-04 1.5083343106e+00 -2.6125116608e+00 1.5083343106e+00 2.6125116608e+00 
42900 4.8702609805e+00 3.6357174342e-04 1.5083220808e+00 -2.6124904781e+00 1.5083220808e+00 2.6124904781e+00 
43000 4.8702613097e+00 3.5829506344e-04 1.5083100286e+00 -2.6124696031e+00 1.5083100286e+00 2.6124696031e+00 
43100 4.8702616351e+00 3.5310235796e-04 1.5082981513e+00 -2.6124490310e+00 1.5082981513e+00 2.6124490310e+00 
43200 4.8702619566e+00 3.4799224620e-04 1.5082864460e+00 -2.6124287568e+00 1.5082864460e+00 2.6124287568e+00 
43300 4.8702622743e+00 3.4296337000e-04 1.5082749100e+00 -2.6124087758e+00 1.5082749100e+00 2.6124087758e+00 
43400 4.8702625882e+00 3.3801439348e-04 1.5082635406e+00 -2.6123890835e+00 1.5082635406e+00 2.6123890835e+00 
43500 4.8702628985e+00 3.3314400261e-04 1.5082523352e+00 -2.6123696752e+00 1.5082523352e+00 2.6123696752e+00 
43600 4.8702632050e+00 3.2835090485e-04 1.5082412912e+00 -2.6123505464e+00 1.5082412912e+00 2.6123505464e+00 
43700 4.8702635080e+00 3.2363382877e-04 1.5082304060e+00 -2.6123316926e+00 1.5082304060e+00 2.6123316926e+00 
43800 4.8702638073e+00 3.1899152366e-04 1.5082196770e+00 -2.6123131096e+00 1.5082196770e+00 2.6123131096e+00 
43900 4.8702641031e+00 3.1442275923e-04 1.5082091019e+00 -2.6122947930e+00 1.5082091019e+00 2.6122947930e+00 
44000 4.8702643954e+00 3.0992632521e-04 1.5081986782e+00 -2.6122767386e+00 1.5081986782e+00 2.6122767386e+00 
44100 4.8702646842e+00 3.0550103103e-04 1.5081884035e+00 -2.6122589423e+00 1.5081884035e+00 2.6122589423e+00 
44200 4.8702649696e+00 3.0114570552e-04 1.5081782755e+00 -2.6122414000e+00 1.5081782755e+00 2.6122414000e+00 
44300 4.8702652516e+00 2.9685919652e-04 1.5081682917e+00 -2.6122241076e+00 1.5081682917e+00 2.6122241076e+00 
44400 4.8702655303e+00 2.9264037062e-04 1.5081584500e+00 -2.6122070613e+00 1.5081584500e+00 2.6122070613e+00 
44500 4.8702658057e+00 2.8848811281e-04 1.5081487481e+00 -2.6121902571e+00 1.5081487481e+00 2.6121902571e+00 
44600 4.8702660778e+00 2.8440132620e-04 1.5081391838e+00 -2.6121736913e+00 1.5081391838e+00 2.6121736913e+00 
44700 4.8702663466e+00 2.8037893171e-04 1.5081297550e+00 -2.6121573600e+00 1.5081297550e+00 2.6121573600e+00 
44800 4.8702666123e+00 2.7641986779e-04 1.5081204594e+00 -2.6121412596e+00 1.5081204594e+00 2.6121412596e+00 
44900 4.8702668748e+00 2.7252309013e-04 1.5081112950e+00 -2.6121253864e+00 1.5081112950e+00 2.6121253864e+00 
45000 4.8702671342e+00 2.6868757137e-04 1.5081022598e+00 -2.6121097369e+00 1.5081022598e+00 2.6121097369e+00 
45100 4.8702673905e+00 2.6491230081e-04 1.5080933516e+00 -2.6120943076e+00 1.5080933516e+00 2.6120943076e+00 
45200 4.8702676438e+00 2.6119628422e-04 1.5080845686e+00 -2.6120790950e+00 1.5080845686e+00 2.6120790950e+00 
45300 4.8702678941e+00 2.5753854347e-04 1.5080759088e+00 -2.6120640957e+00 1.5080759088e+00 2.6120640957e+00 
45400 4.8702681414e+00 2.5393811633e-04 1.5080673701e+00 -2.6120493063e+00 1.5080673701e+00 2.6120493063e+00 
45500 4.8702683858e+00 2.5039405624e-04 1.5080589508e+00 -2.6120347236e+00 1.5080589508e+00 2.6120347236e+00 
45600 4.8702686272e+00 2.4690543199e-04 1.5080506490e+00 -2.6120203444e+00 1.5080506490e+00 2.6120203444e+00 
45700 4.8702688658e+00 2.4347132754e-04 1.5080424627e+00 -2.6120061654e+00 1.5080424627e+00 2.6120061654e+00 
45800 4.8702691016e+00 2.4009084174e-04 1.5080343903e+00 -2.6119921836e+00 1.5080343903e+00 2.6119921836e+00 
45900 4.8702693345e+00 2.3676308814e-04 1.5080264299e+00 -2.6119783958e+00 1.5080264299e+00 2.6119783958e+00 
46000 4.8702695647e+00 2.3348719469e-04 1.5080185798e+00 -2.6119647990e+00 1.5080185798e+00 2.6119647990e+00 
46100 4.8702697921e+00 2.3026230358e-04 1.5080108383e+00 -2.6119513903e+00 1.5080108383e+00 2.6119513903e+00 
46200 4.8702700169e+00 2.2708757099e-04 1.5080032037e+00 -2.6119381667e+00 1.5080032037e+00 2.6119381667e+00 
46300 4.8702702389e+00 2.2396216685e-04 1.5079956743e+00 -2.6119251254e+00 1.5079956743e+00 2.6119251254e+00 
46400 4.8702704584e+00 2.2088527467e-04 1.5079882485e+00 -2.6119122635e+00 1.5079882485e+00 2.6119122635e+00 
46500 4.8702706752e+00 2.1785609130e-04 1.5079809246e+00 -2.6118995783e+00 1.5079809246e+00 2.6118995783e+00 
46600 4.8702708894e+00 2.1487382673e-04 1.5079737012e+00 -2.6118870669e+00 1.5079737012e+00 2.6118870669e+00 
46700 4.8702711011e+00 2.1193770386e-04 1.5079665766e+00 -2.6118747268e+00 1.5079665766e+00 2.6118747268e+00 
46800 4.8702713103e+00 2.0904695835e-04 1.5079595493e+00 -2.6118625552e+00 1.5079595493e+00 2.6118625552e+00 
46900 4.8702715169e+00 2.0620083838e-04 1.5079526179e+00 -2.6118505496e+00 1.5079526179e+00 2.6118505496e+00 
47000 4.8702717212e+00 2.0339860448e-04 1.5079457808e+00 -2.6118387074e+00 1.5079457808e+00 2.6118387074e+00 
47100 4.8702719229e+00 2.0063952932e-04 1.5079390366e+00 -2.6118270261e+00 1.5079390366e+00 2.6118270261e+00 
47200 4.8702721223e+00 1.9792289754e-04 1.5079323838e+00 -2.6118155031e+00 1.5079323838e+00 2.6118155031e+00 
47300 4.8702723194e+00 1.9524800554e-04 1.5079258211e+00 -2.6118041362e+00 1.5079258211e+00 2.6118041362e+00 
47400 4.8702725140e+00 1.9261416134e-04 1.5079193470e+00 -2.6117929228e+00 1.5079193470e+00 2.6117929228e+00 
47500 4.8702727064e+00 1.9002068434e-04 1.5079129603e+00 -2.6117818606e+00 1.5079129603e+00 2.6117818606e+00 
47600 4.8702728964e+00 1.8746690521e-04 1.5079066595e+00 -2.6117709473e+00 1.5079066595e+00 2.6117709473e+00 
47700 4.8702730842e+00 1.8495216567e-04 1.5079004434e+00 -2.6117601807e+00 1.5079004434e+00 2.6117601807e+00 
47800 4.8702732698e+00 1.8247581834e-04 1.5078943106e+00 -2.6117495584e+00 1.5078943106e+00 2.6117495584e+00 
47900 4.8702734532e+00 1.8003722654e-04 1.5078882599e+00 -2.6117390783e+00 1.5078882599e+00 2.6117390783e+00 
48000 4.8702736343e+00 1.7763576417e-04 1.5078822901e+00 -2.6117287383e+00 1.5078822901e+00 2.6117287383e+00 
48100 4.8702738134e+00 1.7527081553e-04 1.5078763998e+00 -2.6117185361e+00 1.5078763998e+00 2.6117185361e+00 
48200 4.8702739902e+00 1.7294177514e-04 1.5078705880e+00 -2.6117084697e+00 1.5078705880e+00 2.6117084697e+00 
48300 4.8702741650e+00 1.7064804760e-04 1.5078648534e+00 -2.6116985370e+00 1.5078648534e+00 2.6116985370e+00 
48400 4.8702743377e+00 1.6838904743e-04 1.5078591948e+00 -2.6116887360e+00 1.5078591948e+00 2.6116887360e+00 
48500 4.8702745084e+00 1.6616419891e-04 1.5078536111e+00 -2.6116790648e+00 1.5078536111e+00 2.6116790648e+00 
48600 4.8702746770e+00 1.6397293594e-04 1.5078481011e+00 -2.6116695212e+00 1.5078481011e+00 2.6116695212e+00 
48700 4.8702748436e+00 1.6181470186e-04 1.5078426638e+00 -2.6116601035e+00 1.5078426638e+00 2.6116601035e+00 
48800 4.8702750082e+00 1.5968894936e-04 1.5078372980e+00 -2.6116508098e+00 1.5078372980e+00 2.6116508098e+00 
48900 4.8702751709e+00 1.5759514029e-04 1.5078320027e+00 -2.6116416380e+00 1.5078320027e+00 2.6116416380e+00 
49000 4.8702753316e+00 1.5553274551e-04 1.5078267769e+00 -2.6116325865e+00 1.5078267769e+00 2.6116325865e+00 
49100 4.8702754904e+00 1.5350124477e-04 1.5078216194e+00 -2.6116236535e+00 1.5078216194e+00 2.6116236535e+00 
49200 4.8702756473e+00 1.5150012660e-04 1.5078165292e+00 -2.6116148370e+00 1.5078165292e+00 2.6116148370e+00 
49300 4.8702758024e+00 1.4952888809e-04 1.5078115054e+00 -2.6116061355e+00 1.5078115054e+00 2.6116061355e+00 
49400 4.8702759556e+00 1.4758703483e-04 1.5078065469e+00 -2.6115975472e+00 1.5078065469e+00 2.6115975472e+00 
49500 4.8702761069e+00 1.4567408077e-04 1.5078016528e+00 -2.6115890704e+00 1.5078016528e+00 2.6115890704e+00 
49600 4.8702762565e+00 1.4378954803e-04 1.5077968221e+00 -2.6115807034e+00 1.5077968221e+00 2.6115807034e+00 
49700 4.8702764043e+00 1.4193296684e-04 1.5077920539e+00 -2.6115724447e+00 1.5077920539e+00 2.6115724447e+00 
49800 4.8702765503e+00 1.4010387536e-04 1.5077873473e+00 -2.6115642925e+00 1.5077873473e+00 2.6115642925e+00 
49900 4.8702766946e+00 1.3830181960e-04 1.5077827013e+00 -2.6115562454e+00 1.5077827013e+00 2.6115562454e+00 
50000 4.8702768372e+00 1.3652635326e-04 1.5077781150e+00 -2.6115483017e+00 1.5077781150e+00 2.6115483017e+00 
50100 4.8702769781e+00 1.3477703761e-04 1.5077735876e+00 -2.6115404601e+00 1.5077735876e+00 2.6115404601e+00 
50200 4.8702771173e+00 1.3305344140e-04 1.5077691182e+00 -2.6115327188e+00 1.5077691182e+00 2.6115327188e+00 
50300 4.8702772548e+00 1.3135514071e-04 1.5077647059e+00 -2.6115250766e+00 1.5077647059e+00 2.6115250766e+00 
50400 4.8702773907e+00 1.2968171883e-04 1.5077603500e+00 -2.6115175318e+00 1.5077603500e+00 2.6115175318e+00 
50500 4.8702775250e+00 1.2803276619e-04 1.5077560495e+00 -2.6115100832e+00 1.5077560495e+00 2.6115100832e+00 
50600 4.8702776577e+00 1.2640788017e-04 1.5077518037e+00 -2.6115027292e+00 1.5077518037e+00 2.6115027292e+00 
50700 4.8702777888e+00 1.2480666507e-04 1.5077476118e+00 -2.6114954686e+00 1.5077476118e+00 2.6114954686e+00 
50800 4.8702779184e+00 1.2322873194e-04 1.5077434729e+00 -2.6114882999e+00 1.5077434729e+00 2.6114882999e+00 
50900 4.8702780464e+00 1.2167369849e-04 1.5077393864e+00 -2.6114812218e+00 1.5077393864e+00 2.6114812218e+00 
51000 4.8702781729e+00 1.2014118898e-04 1.5077353514e+00 -2.6114742331e+00 1.5077353514e+00 2.6114742331e+00 
51100 4.8702782979e+00 1.1863083414e-04 1.5077313673e+00 -2.6114673323e+00 1.5077313673e+00 2.6114673323e+00 
51200 4.8702784213e+00 1.1714227100e-04 1.5077274332e+00 -2.6114605183e+00 1.5077274332e+00 2.6114605183e+00 
51300 4.8702785434e+00 1.1567514286e-04 1.5077235485e+00 -2.6114537897e+00 1.5077235485e+00 2.6114537897e+00 
51400 4.8702786639e+00 1.1422909915e-04 1.5077197124e+00 -2.6114471454e+00 1.5077197124e+00 2.6114471454e+00 
51500 4.8702787831e+00 1.1280379533e-04 1.5077159243e+00 -2.6114405842e+00 1.5077159243e+00 2.6114405842e+00 
51600 4.8702789008e+00 1.1139889280e-04 1.5077121834e+00 -2.6114341048e+00 1.5077121834e+00 2.6114341048e+00 
51700 4.8702790171e+00 1.1001405880e-04 1.5077084891e+00 -2.6114277061e+00 1.5077084891e+00 2.6114277061e+00 
51800 4.8702791320e+00 1.0864896631e-04 1.5077048407e+00 -2.6114213869e+00 1.5077048407e+00 2.6114213869e+00 
51900 4.8702792456e+00 1.0730329396e-04 1.5077012376e+00 -2.6114151461e+00 1.5077012376e+00 2.6114151461e+00 
52000 4.8702793578e+00 1.0597672594e-04 1.5076976791e+00 -2.6114089826e+00 1.5076976791e+00 2.6114089826e+00 
52100 4.8702794687e+00 1.0466895189e-04 1.5076941645e+00 -2.6114028953e+00 1.5076941645e+00 2.6114028953e+00 
52200 4.8702795782e+00 1.0337966684e-04 1.5076906934e+00 -2.6113968830e+00 1.5076906934e+00 2.6113968830e+00 
52300 4.8702796865e+00 1.0210857108e-04 1.5076872650e+00 -2.6113909449e+00 1.5076872650e+00 2.6113909449e+00 
52400 4.8702797935e+00 1.0085537011e-04 1.5076838787e+00 -2.6113850797e+00 1.5076838787e+00 2.6113850797e+00 
52500 4.8702798992e+00 9.9619774535e-05 1.5076805340e+00 -2.6113792865e+00 1.5076805340e+00 2.6113792865e+00 
52600 4.8702800036e+00 9.8401499977e-05 1.5076772303e+00 -2.6113735642e+00 1.5076772303e+00 2.6113735642e+00 
52700 4.8702801068e+00 9.7200267001e-05 1.5076739669e+00 -2.6113679119e+00 1.5076739669e+00 2.6113679119e+00 
52800 4.8702802088e+00 9.6015801021e-05 1.5076707434e+00 -2.6113623286e+00 1.5076707434e+00 2.6113623286e+00 
52900 4.8702803095e+00 9.4847832225e-05 1.5076675592e+00 -2.6113568134e+00 1.5076675592e+00 2.6113568134e+00 
53000 4.8702804091e+00 9.3696095495e-05 1.5076644136e+00 -2.6113513652e+00 1.5076644136e+00 2.6113513652e+00 
53100 4.8702805074e+00 9.2560330321e-05 1.5076613063e+00 -2.6113459831e+00 1.5076613063e+00 2.6113459831e+00 
53200 4.8702806047e+00 9.1440280728e-05 1.5076582366e+00 -2.6113406663e+00 1.5076582366e+00 2.6113406663e+00 
53300 4.8702807007e+00 9.0335695198e-05 1.5076552041e+00 -2.6113354138e+00 1.5076552041e+00 2.6113354138e+00 
53400 4.8702807956e+00 8.9246326591e-05 1.5076522082e+00 -2.6113302248e+00 1.5076522082e+00 2.6113302248e+00 
53500 4.8702808894e+00 8.8171932076e-05 1.5076492484e+00 -2.6113250983e+00 1.5076492484e+00 2.6113250983e+00 
53600 4.8702809820e+00 8.7112273051e-05 1.5076463243e+00 -2.6113200335e+00 1.5076463243e+00 2.6113200335e+00 
53700 4.8702810736e+00 8.6067115072e-05 1.5076434353e+00 -2.6113150296e+00 1.5076434353e+00 2.6113150296e+00 
53800 4.8702811641e+00 8.5036227785e-05 1.5076405809e+00 -2.6113100857e+00 1.5076405809e+00 2.6113100857e+00 
53900 4.8702812535e+00 8.4019384853e-05 1.5076377607e+00 -2.6113052010e+00 1.5076377607e+00 2.6113052010e+00 
54000 4.8702813418e+00 8.3016363882e-05 1.5076349743e+00 -2.6113003747e+00 1.5076349743e+00 2.6113003747e+00 
54100 4.8702814291e+00 8.2026946363e-05 1.5076322211e+00 -2.6112956061e+00 1.5076322211e+00 2.6112956061e+00 
54200 4.8702815154e+00 8.1050917595e-05 1.5076295007e+00 -2.6112908942e+00 1.5076295007e+00 2.6112908942e+00 
54300 4.8702816006e+00 8.0088066623e-05 1.5076268127e+00 -2.6112862384e+00 1.5076268127e+00 2.6112862384e+00 
54400 4.8702816848e+00 7.9138186175e-05 1.5076241566e+00 -2.6112816379e+00 1.5076241566e+00 2.6112816379e+00 
54500 4.8702817680e+00 7.8201072591e-05 1.5076215320e+00 -2.6112770920e+00 1.5076215320e+00 2.6112770920e+00 
54600 4.8702818503e+00 7.7276525766e-05 1.5076189385e+00 -2.6112725999e+00 1.5076189385e+00 2.6112725999e+00 
54700 4.8702819315e+00 7.6364349086e-05 1.5076163756e+00 -2.6112681608e+00 1.5076163756e+00 2.6112681608e+00 
54800 4.8702820118e+00 7.5464349367e-05 1.5076138430e+00 -2.6112637742e+00 1.5076138430e+00 2.6112637742e+00 
54900 4.8702820911e+00 7.4576336791e-05 1.5076113402e+00 -2.6112594393e+00 1.5076113402e+00 2.6112594393e+00 
55000 4.8702821695e+00 7.3700124852e-05 1.5076088669e+00 -2.6112551554e+00 1.5076088669e+00 2.6112551554e+00 
55100 4.8702822470e+00 7.2835530296e-05 1.5076064226e+00 -2.6112509218e+00 1.5076064226e+00 2.6112509218e+00 
55200 4.8702823235e+00 7.1982373061e-05 1.5076040070e+00 -2.6112467378e+00 1.5076040070e+00 2.6112467378e+00 
55300 4.8702823991e+00 7.1140476223e-05 1.5076016197e+00 -2.6112426029e+00 1.5076016197e+00 2.6112426029e+00 
55400 4.8702824739e+00 7.0309665940e-05 1.5075992603e+00 -2.6112385163e+00 1.5075992603e+00 2.6112385163e+00 
55500 4.8702825479e+00 7.0855004457e-05 1.5075992603e+00 -2.6112385163e+00 1.5075992603e+00 2.6112385163e+00 
55600 4.8702826209e+00 7.0026806263e-05 1.5075969104e+00 -2.6112344461e+00 1.5075969104e+00 2.6112344461e+00 
55700 4.8702826932e+00 7.0568777700e-05 1.5075969104e+00 -2.6112344461e+00 1.5075969104e+00 2.6112344461e+00 
55800 4.8702827647e+00 7.1112604786e-05 1.5075969104e+00 -2.6112344461e+00 1.5075969104e+00 2.6112344461e+00 
55900 4.8702828351e+00 7.0277141209e-05 1.5075945519e+00 -2.6112303611e+00 1.5075945519e+00 2.6112303611e+00 
56000 4.8702829049e+00 7.0816047750e-05 1.5075945519e+00 -2.6112303611e+00 1.5075945519e+00 2.6112303611e+00 
56100 4.8702829736e+00 6.9981125368e-05 1.5075922033e+00 -2.6112262931e+00 1.5075922033e+00 2.6112262931e+00 
56200 4.8702830417e+00 7.0514529284e-05 1.5075922033e+00 -2.6112262931e+00 1.5075922033e+00 2.6112262931e+00 
56300 4.8702831091e+00 7.1048821960e-05 1.5075922033e+00 -2.6112262931e+00 1.5075922033e+00 2.6112262931e+00 
56400 4.8702831754e+00 7.0204212988e-05 1.5075898469e+00 -2.6112222118e+00 1.5075898469e+00 2.6112222118e+00 
56500 4.8702832411e+00 7.0731843090e-05 1.5075898469e+00 -2.6112222118e+00 1.5075898469e+00 2.6112222118e+00 
56600 4.8702833058e+00 6.9886542723e-05 1.5075875010e+00 -2.6112181486e+00 1.5075875010e+00 2.6112181486e+00 
56700 4.8702833700e+00 7.0407153048e-05 1.5075875010e+00 -2.6112181486e+00 1.5075875010e+00 2.6112181486e+00 
56800 4.8702834334e+00 7.0927964518e-05 1.5075875010e+00 -2.6112181486e+00 1.5075875010e+00 2.6112181486e+00 
56900 4.8702834959e+00 7.0071630149e-05 1.5075851487e+00 -2.6112140742e+00 1.5075851487e+00 2.6112140742e+00 
57000 4.8702835578e+00 7.0584552906e-05 1.5075851487e+00 -2.6112140742e+00 1.5075851487e+00 2.6112140742e+00 
57100 4.8702836190e+00 7.1097295826e-05 1.5075851487e+00 -2.6112140742e+00 1.5075851487e+00 2.6112140742e+00 
57200 4.8702836793e+00 7.0229279733e-05 1.5075827907e+00 -2.6112099901e+00 1.5075827907e+00 2.6112099901e+00 
57300 4.8702837390e+00 7.0733429505e-05 1.5075827907e+00 -2.6112099901e+00 1.5075827907e+00 2.6112099901e+00 
57400 4.8702837979e+00 6.9863831424e-05 1.5075804448e+00 -2.6112059268e+00 1.5075804448e+00 2.6112059268e+00 
57500 4.8702838562e+00 7.0359292931e-05 1.5075804448e+00 -2.6112059268e+00 1.5075804448e+00 2.6112059268e+00 
57600 4.8702839139e+00 7.0854208879e-05 1.5075804448e+00 -2.6112059268e+00 1.5075804448e+00 2.6112059268e+00 
57700 4.8702839706e+00 6.9972792089e-05 1.5075780948e+00 -2.6112018566e+00 1.5075780948e+00 2.6112018566e+00 
57800 4.8702840270e+00 7.0458491035e-05 1.5075780948e+00 -2.6112018566e+00 1.5075780948e+00 2.6112018566e+00 
57900 4.8702840826e+00 7.0943415135e-05 1.5075780948e+00 -2.6112018566e+00 1.5075780948e+00 2.6112018566e+00 
58000 4.8702841373e+00 7.0050088889e-05 1.5075757419e+00 -2.6111977813e+00 1.5075757419e+00 2.6111977813e+00 
58100 4.8702841917e+00 7.0525378360e-05 1.5075757419e+00 -2.6111977813e+00 1.5075757419e+00 2.6111977813e+00 
58200 4.8702842454e+00 7.0999712922e-05 1.5075757419e+00 -2.6111977813e+00 1.5075757419e+00 2.6111977813e+00 
58300 4.8702842982e+00 7.0094563794e-05 1.5075733872e+00 -2.6111937027e+00 1.5075733872e+00 2.6111937027e+00 
58400 4.8702843506e+00 7.0558940003e-05 1.5075733872e+00 -2.6111937027e+00 1.5075733872e+00 2.6111937027e+00 
58500 4.8702844024e+00 7.1022222570e-05 1.5075733872e+00 -2.6111937027e+00 1.5075733872e+00 2.6111937027e+00 
58600 4.8702844534e+00 7.0105482038e-05 1.5075710317e+00 -2.6111896228e+00 1.5075710317e+00 2.6111896228e+00 
58700 4.8702845040e+00 7.0558562138e-05 1.5075710317e+00 -2.6111896228e+00 1.5075710317e+00 2.6111896228e+00 
58800 4.8702845540e+00 7.1010444638e-05 1.5075710317e+00 -2.6111896228e+00 1.5075710317e+00 2.6111896228e+00 
58900 4.8702846031e+00 7.0082462103e-05 1.5075686765e+00 -2.6111855436e+00 1.5075686765e+00 2.6111855436e+00 
59000 4.8702846520e+00 7.0523965717e-05 1.5075686765e+00 -2.6111855436e+00 1.5075686765e+00 2.6111855436e+00 
59100 4.8702847002e+00 7.0964197085e-05 1.5075686765e+00 -2.6111855436e+00 1.5075686765e+00 2.6111855436e+00 
59200 4.8702847476e+00 7.0025417361e-05 1.5075663229e+00 -2.6111814671e+00 1.5075663229e+00 2.6111814671e+00 
59300 4.8702847947e+00 7.0455151147e-05 1.5075663229e+00 -2.6111814671e+00 1.5075663229e+00 2.6111814671e+00 
59400 4.8702848413e+00 7.0883562786e-05 1.5075663229e+00 -2.6111814671e+00 1.5075663229e+00 2.6111814671e+00 
59500 4.8702848871e+00 6.9934507242e-05 1.5075639720e+00 -2.6111773952e+00 1.5075639720e+00 2.6111773952e+00 
59600 4.8702849325e+00 7.0352351946e-05 1.5075639720e+00 -2.6111773952e+00 1.5075639720e+00 2.6111773952e+00 
59700 4.8702849774e+00 7.0768845506e-05 1.5075639720e+00 -2.6111773952e+00 1.5075639720e+00 2.6111773952e+00 
59800 4.8702850216e+00 6.9810096257e-05 1.5075616249e+00 -2.6111733298e+00 1.5075616249e+00 2.6111733298e+00 
59900 4.8702850655e+00 7.0215995787e-05 1.5075616249e+00 -2.6111733298e+00 1.5075616249e+00 2.6111733298e+00 
60000 4.8702851088e+00 7.0620532851e-05 1.5075616249e+00 -2.6111733298e+00 1.5075616249e+00 2.6111733298e+00 
60100 4.8702851517e+00 7.1023580720e-05 1.5075616249e+00 -2.6111733298e+00 1.5075616249e+00 2.6111733298e+00 
60200 4.8702851938e+00 7.0046344189e-05 1.5075592693e+00 -2.6111692499e+00 1.5075592693e+00 2.6111692499e+00 
60300 4.8702852356e+00 7.0438535963e-05 1.5075592693e+00 -2.6111692499e+00 1.5075592693e+00 2.6111692499e+00 
60400 4.8702852769e+00 7.0829268251e-05 1.5075592693e+00 -2.6111692499e+00 1.5075592693e+00 2.6111692499e+00 
60500 4.8702853176e+00 6.9843538901e-05 1.5075569202e+00 -2.6111651810e+00 1.5075569202e+00 2.6111651810e+00 
60600 4.8702853579e+00 7.0223504398e-05 1.5075569202e+00 -2.6111651810e+00 1.5075569202e+00 2.6111651810e+00 
60700 4.8702853978e+00 7.0602048274e-05 1.5075569202e+00 -2.6111651810e+00 1.5075569202e+00 2.6111651810e+00 
60800 4.8702854372e+00 7.0979058329e-05 1.5075569202e+00 -2.6111651810e+00 1.5075569202e+00 2.6111651810e+00 
60900 4.8702854760e+00 6.9976660012e-05 1.5075545661e+00 -2.6111611036e+00 1.5075545661e+00 2.6111611036e+00 
61000 4.8702855145e+00 7.0342769627e-05 1.5075545661e+00 -2.6111611036e+00 1.5075545661e+00 2.6111611036e+00 
61100 4.8702855525e+00 7.0707413982e-05 1.5075545661e+00 -2.6111611036e+00 1.5075545661e+00 2.6111611036e+00 
61200 4.8702855901e+00 7.1070489704e-05 1.5075545661e+00 -2.6111611036e+00 1.5075545661e+00 2.6111611036e+00 
61300 4.8702856270e+00 7.0052379035e-05 1.5075522089e+00 -2.6111570209e+00 1.5075522089e+00 2.6111570209e+00 
61400 4.8702856638e+00 7.0404499331e-05 1.5075522089e+00 -2.6111570209e+00 1.5075522089e+00 2.6111570209e+00 
61500 4.8702857000e+00 7.0755143627e-05 1.5075522089e+00 -2.6111570209e+00 1.5075522089e+00 2.6111570209e+00 
61600 4.8702857357e+00 6.9730829967e-05 1.5075498622e+00 -2.6111529563e+00 1.5075498622e+00 2.6111529563e+00 
61700 4.8702857711e+00 7.0070736692e-05 1.5075498622e+00 -2.6111529563e+00 1.5075498622e+00 2.6111529563e+00 
61800 4.8702858061e+00 7.0409257802e-05 1.5075498622e+00 -2.6111529563e+00 1.5075498622e+00 2.6111529563e+00 
61900 4.8702858407e+00 7.0746296847e-05 1.5075498622e+00 -2.6111529563e+00 1.5075498622e+00 2.6111529563e+00 
62000 4.8702858747e+00 6.9708571260e-05 1.5075475158e+00 -2.6111488922e+00 1.5075475158e+00 2.6111488922e+00 
62100 4.8702859085e+00 7.0034881462e-05 1.5075475158e+00 -2.6111488922e+00 1.5075475158e+00 2.6111488922e+00 
62200 4.8702859419e+00 7.0359819249e-05 1.5075475158e+00 -2.6111488922e+00 1.5075475158e+00 2.6111488922e+00 
62300 4.8702859749e+00 7.0683293871e-05 1.5075475158e+00 -2.6111488922e+00 1.5075475158e+00 2.6111488922e+00 
62400 4.8702860075e+00 7.1005221116e-05 1.5075475158e+00 -2.6111488922e+00 1.5075475158e+00 2.6111488922e+00 
62500 4.8702860395e+00 6.9947330006e-05 1.5075451608e+00 -2.6111448133e+00 1.5075451608e+00 2.6111448133e+00 
62600 4.8702860714e+00 7.0258403932e-05 1.5075451608e+00 -2.6111448133e+00 1.5075451608e+00 2.6111448133e+00 
62700 4.8702861029e+00 7.0568073912e-05 1.5075451608e+00 -2.6111448133e+00 1.5075451608e+00 2.6111448133e+00 
62800 4.8702861340e+00 7.0876258664e-05 1.5075451608e+00 -2.6111448133e+00 1.5075451608e+00 2.6111448133e+00 
62900 4.8702861645e+00 6.9807211219e-05 1.5075428101e+00 -2.6111407417e+00 1.5075428101e+00 2.6111407417e+00 
63000 4.8702861949e+00 7.0104688623e-05 1.5075428101e+00 -2.6111407417e+00 1.5075428101e+00 2.6111407417e+00 
63100 4.8702862249e+00 7.0400831405e-05 1.5075428101e+00 -2.6111407417e+00 1.5075428101e+00 2.6111407417e+00 
63200 4.8702862546e+00 7.0695560626e-05 1.5075428101e+00 -2.6111407417e+00 1.5075428101e+00 2.6111407417e+00 
63300 4.8702862839e+00 7.0988803179e-05 1.5075428101e+00 -2.6111407417e+00 1.5075428101e+00 2.6111407417e+00 
63400 4.8702863127e+00 6.9902657918e-05 1.5075404557e+00 -2.6111366637e+00 1.5075404557e+00 2.6111366637e+00 
63500 4.8702863413e+00 7.0185200682e-05 1.5075404557e+00 -2.6111366637e+00 1.5075404557e+00 2.6111366637e+00 
63600 4.8702863696e+00 7.0466429585e-05 1.5075404557e+00 -2.6111366637e+00 1.5075404557e+00 2.6111366637e+00 
63700 4.8702863976e+00 7.0746271993e-05 1.5075404557e+00 -2.6111366637e+00 1.5075404557e+00 2.6111366637e+00 
63800 4.8702864250e+00 6.9651550188e-05 1.5075381093e+00 -2.6111325996e+00 1.5075381093e+00 2.6111325996e+00 
63900 4.8702864523e+00 6.9920920070e-05 1.5075381093e+00 -2.6111325996e+00 1.5075381093e+00 2.6111325996e+00 
64000 4.8702864793e+00 7.0189076288e-05 1.5075381093e+00 -2.6111325996e+00 1.5075381093e+00 2.6111325996e+00 
64100 4.8702865060e+00 7.0455946630e-05 1.5075381093e+00 -2.6111325996e+00 1.5075381093e+00 2.6111325996e+00 
64200 4.8702865324e+00 7.0721464289e-05 1.5075381093e+00 -2.6111325996e+00 1.5075381093e+00 2.6111325996e+00 
64300 4.8702865582e+00 6.9612958134e-05 1.5075357637e+00 -2.6111285369e+00 1.5075357637e+00 2.6111285369e+00 
64400 4.8702865840e+00 6.9868089388e-05 1.5075357637e+00 -2.6111285369e+00 1.5075357637e+00 2.6111285369e+00 
64500 4.8702866094e+00 7.0122055993e-05 1.5075357637e+00 -2.6111285369e+00 1.5075357637e+00 2.6111285369e+00 
64600 4.8702866346e+00 7.0374790197e-05 1.5075357637e+00 -2.6111285369e+00 1.5075357637e+00 2.6111285369e+00 
64700 4.8702866594e+00 7.0626229359e-05 1.5075357637e+00 -2.6111285369e+00 1.5075357637e+00 2.6111285369e+00 
64800 4.8702866840e+00 7.0876315620e-05 1.5075357637e+00 -2.6111285369e+00 1.5075357637e+00 2.6111285369e+00 
64900 4.8702867081e+00 6.9749403580e-05 1.5075334129e+00 -2.6111244653e+00 1.5075334129e+00 2.6111244653e+00 
65000 4.8702867321e+00 6.9989110966e-05 1.5075334129e+00 -2.6111244653e+00 1.5075334129e+00 2.6111244653e+00 
65100 4.8702867558e+00 7.0227677785e-05 1.5075334129e+00 -2.6111244653e+00 1.5075334129e+00 2.6111244653e+00 
65200 4.8702867792e+00 7.0465043073e-05 1.5075334129e+00 -2.6111244653e+00 1.5075334129e+00 2.6111244653e+00 
65300 4.8702868024e+00 7.0701150529e-05 1.5075334129e+00 -2.6111244653e+00 1.5075334129e+00 2.6111244653e+00 
65400 4.8702868253e+00 7.0935948214e-05 1.5075334129e+00 -2.6111244653e+00 1.5075334129e+00 2.6111244653e+00 
65500 4.8702868477e+00 6.9792659710e-05 1.5075310602e+00 -2.6111203903e+00 1.5075310602e+00 2.6111203903e+00 
65600 4.8702868700e+00 7.0017174511e-05 1.5075310602e+00 -2.6111203903e+00 1.5075310602e+00 2.6111203903e+00 
65700 4.8702868921e+00 7.0240607674e-05 1.5075310602e+00 -2.6111203903e+00 1.5075310602e+00 2.6111203903e+00 
65800 4.8702869140e+00 7.0462902700e-05 1.5075310602e+00 -2.6111203903e+00 1.5075310602e+00 2.6111203903e+00 
65900 4.8702869355e+00 7.0684007441e-05 1.5075310602e+00 -2.6111203903e+00 1.5075310602e+00 2.6111203903e+00 
66000 4.8702869569e+00 7.0903873828e-05 1.5075310602e+00 -2.6111203903e+00 1.5075310602e+00 2.6111203903e+00 
66100 4.8702869777e+00 6.9746370503e-05 1.5075287086e+00 -2.6111163171e+00 1.5075287086e+00 2.6111163171e+00 
66200 4.8702869986e+00 6.9956110641e-05 1.5075287086e+00 -2.6111163171e+00 1.5075287086e+00 2.6111163171e+00 
66300 4.8702870192e+00 7.0164850444e-05 1.5075287086e+00 -2.6111163171e+00 1.5075287086e+00 2.6111163171e+00 
66400 4.8702870395e+00 7.0372536298e-05 1.5075287086e+00 -2.6111163171e+00 1.5075287086e+00 2.6111163171e+00 
66500 4.8702870596e+00 7.0579118726e-05 1.5075287086e+00 -2.6111163171e+00 1.5075287086e+00 2.6111163171e+00 
66600 4.8702870795e+00 7.0784552131e-05 1.5075287086e+00 -2.6111163171e+00 1.5075287086e+00 2.6111163171e+00 
66700 4.8702870989e+00 6.9615040432e-05 1.5075263609e+00 -2.6111122507e+00 1.5075263609e+00 2.6111122507e+00 
66800 4.8702871183e+00 6.9810545451e-05 1.5075263609e+00 -2.6111122507e+00 1.5075263609e+00 2.6111122507e+00 
66900 4.8702871375e+00 7.0005145190e-05 1.5075263609e+00 -2.6111122507e+00 1.5075263609e+00 2.6111122507e+00 
67000 4.8702871565e+00 7.0198787844e-05 1.5075263609e+00 -2.6111122507e+00 1.5075263609e+00 2.6111122507e+00 
67100 4.8702871753e+00 7.0391425598e-05 1.5075263609e+00 -2.6111122507e+00 1.5075263609e+00 2.6111122507e+00 
67200 4.8702871938e+00 7.0583014372e-05 1.5075263609e+00 -2.6111122507e+00 1.5075263609e+00 2.6111122507e+00 
67300 4.8702872121e+00 7.0773513575e-05 1.5075263609e+00 -2.6111122507e+00 1.5075263609e+00 2.6111122507e+00 
67400 4.8702872300e+00 6.9589365068e-05 1.5075240135e+00 -2.6111081850e+00 1.5075240135e+00 2.6111081850e+00 
67500 4.8702872478e+00 6.9770069433e-05 1.5075240135e+00 -2.6111081850e+00 1.5075240135e+00 2.6111081850e+00 
67600 4.8702872655e+00 6.9949940883e-05 1.5075240135e+00 -2.6111081850e+00 1.5075240135e+00 2.6111081850e+00 
67700 4.8702872830e+00 7.0128931313e-05 1.5075240135e+00 -2.6111081850e+00 1.5075240135e+00 2.6111081850e+00 
67800 4.8702873003e+00 7.0306996332e-05 1.5075240135e+00 -2.6111081850e+00 1.5075240135e+00 2.6111081850e+00 
67900 4.8702873173e+00 7.0484095024e-05 1.5075240135e+00 -2.6111081850e+00 1.5075240135e+00 2.6111081850e+00 
68000 4.8702873342e+00 7.0660189718e-05 1.5075240135e+00 -2.6111081850e+00 1.5075240135e+00 2.6111081850e+00 
68100 4.8702873509e+00 7.0835245780e-05 1.5075240135e+00 -2.6111081850e+00 1.5075240135e+00 2.6111081850e+00 
68200 4.8702873671e+00 6.9634532718e-05 1.5075216641e+00 -2.6111041158e+00 1.5075216641e+00 2.6111041158e+00 
68300 4.8702873834e+00 6.9799905312e-05 1.5075216641e+00 -2.6111041158e+00 1.5075216641e+00 2.6111041158e+00 
68400 4.8702873995e+00 6.9964511671e-05 1.5075216641e+00 -2.6111041158e+00 1.5075216641e+00 2.6111041158e+00 
68500 4.8702874154e+00 7.0128308080e-05 1.5075216641e+00 -2.6111041158e+00 1.5075216641e+00 2.6111041158e+00 
68600 4.8702874311e+00 7.0291254212e-05 1.5075216641e+00 -2.6111041158e+00 1.5075216641e+00 2.6111041158e+00 
68700 4.8702874467e+00 7.0453312907e-05 1.5075216641e+00 -2.6111041158e+00 1.5075216641e+00 2.6111041158e+00 
68800 4.8702874620e+00 7.0614449966e-05 1.5075216641e+00 -2.6111041158e+00 1.5075216641e+00 2.6111041158e+00 
68900 4.8702874772e+00 7.0774633957e-05 1.5075216641e+00 -2.6111041158e+00 1.5075216641e+00 2.6111041158e+00 
69000 4.8702874920e+00 6.9560331395e-05 1.5075193167e+00 -2.6111000500e+00 1.5075193167e+00 2.6111000500e+00 
69100 4.8702875068e+00 6.9711017963e-05 1.5075193167e+00 -2.6111000500e+00 1.5075193167e+00 2.6111000500e+00 
69200 4.8702875215e+00 6.9861031718e-05 1.5075193167e+00 -2.6111000500e+00 1.5075193167e+00 2.6111000500e+00 
69300 4.8702875360e+00 7.0010331247e-05 1.5075193167e+00 -2.6111000500e+00 1.5075193167e+00 2.6111000500e+00 
69400 4.8702875503e+00 7.0158878328e-05 1.5075193167e+00 -2.6111000500e+00 1.5075193167e+00 2.6111000500e+00 
69500 4.8702875644e+00 7.0306637724e-05 1.5075193167e+00 -2.6111000500e+00 1.5075193167e+00 2.6111000500e+00 
69600 4.8702875784e+00 7.0453576985e-05 1.5075193167e+00 -2.6111000500e+00 1.5075193167e+00 2.6111000500e+00 
69700 4.8702875922e+00 7.0599666271e-05 1.5075193167e+00 -2.6111000500e+00 1.5075193167e+00 2.6111000500e+00 
69800 4.8702876059e+00 7.0744878177e-05 1.5075193167e+00 -2.6111000500e+00 1.5075193167e+00 2.6111000500e+00 
69900 4.8702876192e+00 6.9516278518e-05 1.5075169703e+00 -2.6110959859e+00 1.5075169703e+00 2.6110959859e+00 
70000 4.8702876325e+00 6.9652158255e-05 1.5075169703e+00 -2.6110959859e+00 1.5075169703e+00 2.6110959859e+00 
70100 4.8702876457e+00 6.9787451019e-05 1.5075169703e+00 -2.6110959859e+00 1.5075169703e+00 2.6110959859e+00 
70200 4.8702876588e+00 6.9922118306e-05 1.5075169703e+00 -2.6110959859e+00 1.5075169703e+00 2.6110959859e+00 
70300 4.8702876717e+00 7.0056124565e-05 1.5075169703e+00 -2.6110959859e+00 1.5075169703e+00 2.6110959859e+00 
70400 4.8702876844e+00 7.0189437004e-05 1.5075169703e+00 -2.6110959859e+00 1.5075169703e+00 2.6110959859e+00 
70500 4.8702876970e+00 7.0322025411e-05 1.5075169703e+00 -2.6110959859e+00 1.5075169703e+00 2.6110959859e+00 
70600 4.8702877094e+00 7.0453861988e-05 1.5075169703e+00 -2.6110959859e+00 1.5075169703e+00 2.6110959859e+00 
70700 4.8702877217e+00 7.0584921186e-05 1.5075169703e+00 -2.6110959859e+00 1.5075169703e+00 2.6110959859e+00 
70800 4.8702877339e+00 7.0715179568e-05 1.5075169703e+00 -2.6110959859e+00 1.5075169703e+00 2.6110959859e+00 
70900 4.8702877457e+00 6.9472300843e-05 1.5075146249e+00 -2.6110919235e+00 1.5075146249e+00 2.6110919235e+00 
71000 4.8702877576e+00 6.9593393880e-05 1.5075146249e+00 -2.6110919235e+00 1.5075146249e+00 2.6110919235e+00 
71100 4.8702877693e+00 6.9713986489e-05 1.5075146249e+00 -2.6110919235e+00 1.5075146249e+00 2.6110919235e+00 
71200 4.8702877809e+00 6.9834043015e-05 1.5075146249e+00 -2.6110919235e+00 1.5075146249e+00 2.6110919235e+00 
71300 4.8702877924e+00 6.9953530523e-05 1.5075146249e+00 -2.6110919235e+00 1.5075146249e+00 2.6110919235e+00 
71400 4.8702878037e+00 7.0072418615e-05 1.5075146249e+00 -2.6110919235e+00 1.5075146249e+00 2.6110919235e+00 
71500 4.8702878149e+00 7.0190679264e-05 1.5075146249e+00 -2.6110919235e+00 1.5075146249e+00 2.6110919235e+00 
71600 4.8702878260e+00 7.0308286662e-05 1.5075146249e+00 -2.6110919235e+00 1.5075146249e+00 2.6110919235e+00 
71700 4.8702878370e+00 7.0425217073e-05 1.5075146249e+00 -2.6110919235e+00 1.5075146249e+00 2.6110919235e+00 
71800 4.8702878478e+00 7.0541448698e-05 1.5075146249e+00 -2.6110919235e+00 1.5075146249e+00 2.6110919235e+00 
71900 4.8702878585e+00 7.0656961548e-05 1.5075146249e+00 -2.6110919235e+00 1.5075146249e+00 2.6110919235e+00 
72000 4.8702878690e+00 7.0771737329e-05 1.5075146249e+00 -2.6110919235e+00 1.5075146249e+00 2.6110919235e+00 
72100 4.8702878793e+00 6.9512366008e-05 1.5075122776e+00 -2.6110878579e+00 1.5075122776e+00 2.6110878579e+00 
72200 4.8702878896e+00 6.9618111701e-05 1.5075122776e+00 -2.6110878579e+00 1.5075122776e+00 2.6110878579e+00 
72300 4.8702878998e+00 6.9723434218e-05 1.5075122776e+00 -2.6110878579e+00 1.5075122776e+00 2.6110878579e+00 
72400 4.8702879099e+00 6.9828301629e-05 1.5075122776e+00 -2.6110878579e+00 1.5075122776e+00 2.6110878579e+00 
72500 4.8702879199e+00 6.9932684429e-05 1.5075122776e+00 -2.6110878579e+00 1.5075122776e+00 2.6110878579e+00 
72600 4.8702879297e+00 7.0036555376e-05 1.5075122776e+00 -2.6110878579e+00 1.5075122776e+00 2.6110878579e+00 
72700 4.8702879395e+00 7.0139889341e-05 1.5075122776e+00 -2.6110878579e+00 1.5075122776e+00 2.6110878579e+00 
72800 4.8702879491e+00 7.0242663173e-05 1.5075122776e+00 -2.6110878579e+00 1.5075122776e+00 2.6110878579e+00 
72900 4.8702879586e+00 7.0344855566e-05 1.5075122776e+00 -2.6110878579e+00 1.5075122776e+00 2.6110878579e+00 
73000 4.8702879680e+00 7.0446446944e-05 1.5075122776e+00 -2.6110878579e+00 1.5075122776e+00 2.6110878579e+00 
73100 4.8702879773e+00 7.0547419342e-05 1.5075122776e+00 -2.6110878579e+00 1.5075122776e+00 2.6110878579e+00 
73200 4.8702879865e+00 7.0647756306e-05 1.5075122776e+00 -2.6110878579e+00 1.5075122776e+00 2.6110878579e+00 
73300 4.8702879956e+00 7.0747442792e-05 1.5075122776e+00 -2.6110878579e+00 1.5075122776e+00 2.6110878579e+00 
73400 4.8702880044e+00 6.9473560527e-05 1.5075099311e+00 -2.6110837936e+00 1.5075099311e+00 2.6110837936e+00 
73500 4.8702880133e+00 6.9564401264e-05 1.5075099311e+00 -2.6110837936e+00 1.5075099311e+00 2.6110837936e+00 
73600 4.8702880221e+00 6.9654913536e-05 1.5075099311e+00 -2.6110837936e+00 1.5075099311e+00 2.6110837936e+00 
73700 4.8702880307e+00 6.9745067714e-05 1.5075099311e+00 -2.6110837936e+00 1.5075099311e+00 2.6110837936e+00 
73800 4.8702880393e+00 6.9834836387e-05 1.5075099311e+00 -2.6110837936e+00 1.5075099311e+00 2.6110837936e+00 
73900 4.8702880478e+00 6.9924194222e-05 1.5075099311e+00 -2.6110837936e+00 1.5075099311e+00 2.6110837936e+00 
74000 4.8702880562e+00 7.0013117820e-05 1.5075099311e+00 -2.6110837936e+00 1.5075099311e+00 2.6110837936e+00 
74100 4.8702880644e+00 7.0101585596e-05 1.5075099311e+00 -2.6110837936e+00 1.5075099311e+00 2.6110837936e+00 
74200 4.8702880726e+00 7.0189577654e-05 1.5075099311e+00 -2.6110837936e+00 1.5075099311e+00 2.6110837936e+00 
74300 4.8702880807e+00 7.0277075683e-05 1.5075099311e+00 -2.6110837936e+00 1.5075099311e+00 2.6110837936e+00 
74400 4.8702880887e+00 7.0364062848e-05 1.5075099311e+00 -2.6110837936e+00 1.5075099311e+00 2.6110837936e+00 
74500 4.8702880966e+00 7.0450523697e-05 1.5075099311e+00 -2.6110837936e+00 1.5075099311e+00 2.6110837936e+00 
74600 4.8702881045e+00 7.0536444071e-05 1.5075099311e+00 -2.6110837936e+00 1.5075099311e+00 2.6110837936e+00 
74700 4.8702881122e+00 7.0621811017e-05 1.5075099311e+00 -2.6110837936e+00 1.5075099311e+00 2.6110837936e+00 
74800 4.8702881198e+00 7.0706612715e-05 1.5075099311e+00 -2.6110837936e+00 1.5075099311e+00 2.6110837936e+00 
74900 4.8702881274e+00 7.0790838400e-05 1.5075099311e+00 -2.6110837936e+00 1.5075099311e+00 2.6110837936e+00 
75000 4.8702881346e+00 6.9500749632e-05 1.5075075832e+00 -2.6110797269e+00 1.5075075832e+00 2.6110797269e+00 
75100 4.8702881420e+00 6.9576285285e-05 1.5075075832e+00 -2.6110797269e+00 1.5075075832e+00 2.6110797269e+00 
75200 4.8702881493e+00 6.9651578103e-05 1.5075075832e+00 -2.6110797269e+00 1.5075075832e+00 2.6110797269e+00 
75300 4.8702881565e+00 6.9726601523e-05 1.5075075832e+00 -2.6110797269e+00 1.5075075832e+00 2.6110797269e+00 
75400 4.8702881636e+00 6.9801330952e-05 1.5075075832e+00 -2.6110797269e+00 1.5075075832e+00 2.6110797269e+00 
75500 4.8702881707e+00 6.9875743634e-05 1.5075075832e+00 -2.6110797269e+00 1.5075075832e+00 2.6110797269e+00 
75600 4.8702881776e+00 6.9949818533e-05 1.5075075832e+00 -2.6110797269e+00 1.5075075832e+00 2.6110797269e+00 
75700 4.8702881845e+00 7.0023536217e-05 1.5075075832e+00 -2.6110797269e+00 1.5075075832e+00 2.6110797269e+00 
75800 4.8702881913e+00 7.0096878755e-05 1.5075075832e+00 -2.6110797269e+00 1.5075075832e+00 2.6110797269e+00 
75900 4.8702881980e+00 7.0169829615e-05 1.5075075832e+00 -2.6110797269e+00 1.5075075832e+00 2.6110797269e+00 
76000 4.8702882047e+00 7.0242373579e-05 1.5075075832e+00 -2.6110797269e+00 1.5075075832e+00 2.6110797269e+00 
76100 4.8702882113e+00 7.0314496650e-05 1.5075075832e+00 -2.6110797269e+00 1.5075075832e+00 2.6110797269e+00 
76200 4.8702882177e+00 7.0386185981e-05 1.5075075832e+00 -2.6110797269e+00 1.5075075832e+00 2.6110797269e+00 
76300 4.8702882242e+00 7.0457429789e-05 1.5075075832e+00 -2.6110797269e+00 1.5075075832e+00 2.6110797269e+00 
76400 4.8702882305e+00 7.0528217298e-05 1.5075075832e+00 -2.6110797269e+00 1.5075075832e+00 2.6110797269e+00 
76500 4.8702882368e+00 7.0598538665e-05 1.5075075832e+00 -2.6110797269e+00 1.5075075832e+00 2.6110797269e+00 
76600 4.8702882430e+00 7.0668384925e-05 1.5075075832e+00 -2.6110797269e+00 1.5075075832e+00 2.6110797269e+00 
76700 4.8702882491e+00 7.0737747930e-05 1.5075075832e+00 -2.6110797269e+00 1.5075075832e+00 2.6110797269e+00 
76800 4.8702882550e+00 6.9433937760e-05 1.5075052370e+00 -2.6110756632e+00 1.5075052370e+00 2.6110756632e+00 
76900 4.8702882610e+00 6.9494808729e-05 1.5075052370e+00 -2.6110756632e+00 1.5075052370e+00 2.6110756632e+00 
77000 4.8702882669e+00 6.9555535934e-05 1.5075052370e+00 -2.6110756632e+00 1.5075052370e+00 2.6110756632e+00 
77100 4.8702882727e+00 6.9616094639e-05 1.5075052370e+00 -2.6110756632e+00 1.5075052370e+00 2.6110756632e+00 
77200 4.8702882785e+00 6.9676461903e-05 1.5075052370e+00 -2.6110756632e+00 1.5075052370e+00 2.6110756632e+00 
77300 4.8702882842e+00 6.9736616467e-05 1.5075052370e+00 -2.6110756632e+00 1.5075052370e+00 2.6110756632e+00 
77400 4.8702882899e+00 6.9796538640e-05 1.5075052370e+00 -2.6110756632e+00 1.5075052370e+00 2.6110756632e+00 
77500 4.8702882955e+00 6.9856210196e-05 1.5075052370e+00 -2.6110756632e+00 1.5075052370e+00 2.6110756632e+00 
77600 4.8702883010e+00 6.9915614279e-05 1.5075052370e+00 -2.6110756632e+00 1.5075052370e+00 2.6110756632e+00 
77700 4.8702883065e+00 6.9974735312e-05 1.5075052370e+00 -2.6110756632e+00 1.5075052370e+00 2.6110756632e+00 
77800 4.8702883119e+00 7.0033558913e-05 1.5075052370e+00 -2.6110756632e+00 1.5075052370e+00 2.6110756632e+00 
77900 4.8702883172e+00 7.0092071818e-05 1.5075052370e+00 -2.6110756632e+00 1.5075052370e+00 2.6110756632e+00 
78000 4.8702883225e+00 7.0150261809e-05 1.5075052370e+00 -2.6110756632e+00 1.5075052370e+00 2.6110756632e+00 
78100 4.8702883277e+00 7.0208117644e-05 1.5075052370e+00 -2.6110756632e+00 1.5075052370e+00 2.6110756632e+00 
78200 4.8702883329e+00 7.0265628992e-05 1.5075052370e+00 -2.6110756632e+00 1.5075052370e+00 2.6110756632e+00 
78300 4.8702883380e+00 7.0322786381e-05 1.5075052370e+00 -2.6110756632e+00 1.5075052370e+00 2.6110756632e+00 
78400 4.8702883430e+00 7.0379581132e-05 1.5075052370e+00 -2.6110756632e+00 1.5075052370e+00 2.6110756632e+00 
78500 4.8702883480e+00 7.0436005316e-05 1.5075052370e+00 -2.6110756632e+00 1.5075052370e+00 2.6110756632e+00 
78600 4.8702883529e+00 7.0492051704e-05 1.5075052370e+00 -2.6110756632e+00 1.5075052370e+00 2.6110756632e+00 
78700 4.8702883578e+00 7.0547713719e-05 1.5075052370e+00 -2.6110756632e+00 1.5075052370e+00 2.6110756632e+00 
78800 4.8702883626e+00 7.0602985398e-05 1.5075052370e+00 -2.6110756632e+00 1.5075052370e+00 2.6110756632e+00 
78900 4.8702883674e+00 7.0657861350e-05 1.5075052370e+00 -2.6110756632e+00 1.5075052370e+00 2.6110756632e+00 
79000 4.8702883721e+00 7.0712336720e-05 1.5075052370e+00 -2.6110756632e+00 1.5075052370e+00 2.6110756632e+00 
79100 4.8702883765e+00 6.9394233375e-05 1.5075028917e+00 -2.6110716009e+00 1.5075028917e+00 2.6110716009e+00 
79200 4.8702883811e+00 6.9440393450e-05 1.5075028917e+00 -2.6110716009e+00 1.5075028917e+00 2.6110716009e+00 
79300 4.8702883856e+00 6.9486500667e-05 1.5075028917e+00 -2.6110716009e+00 1.5075028917e+00 2.6110716009e+00 
79400 4.8702883901e+00 6.9532532630e-05 1.5075028917e+00 -2.6110716009e+00 1.5075028917e+00 2.6110716009e+00 
79500 4.8702883946e+00 6.9578468537e-05 1.5075028917e+00 -2.6110716009e+00 1.5075028917e+00 2.6110716009e+00 
79600 4.8702883990e+00 6.9624289074e-05 1.5075028917e+00 -2.6110716009e+00 1.5075028917e+00 2.6110716009e+00 
79700 4.8702884033e+00 6.9669976324e-05 1.5075028917e+00 -2.6110716009e+00 1.5075028917e+00 2.6110716009e+00 
79800 4.8702884076e+00 6.9715513665e-05 1.5075028917e+00 -2.6110716009e+00 1.5075028917e+00 2.6110716009e+00 
79900 4.8702884118e+00 6.9760885694e-05 1.5075028917e+00 -2.6110716009e+00 1.5075028917e+00 2.6110716009e+00 
80000 4.8702884160e+00 6.9806078139e-05 1.5075028917e+00 -2.6110716009e+00 1.5075028917e+00 2.6110716009e+00 
80100 4.8702884202e+00 6.9851077791e-05 1.5075028917e+00 -2.6110716009e+00 1.5075028917e+00 2.6110716009e+00 
80200 4.8702884243e+00 6.9895872430e-05 1.5075028917e+00 -2.6110716009e+00 1.5075028917e+00 2.6110716009e+00 
80300 4.8702884283e+00 6.9940450764e-05 1.5075028917e+00 -2.6110716009e+00 1.5075028917e+00 2.6110716009e+00 
80400 4.8702884323e+00 6.9984802365e-05 1.5075028917e+00 -2.6110716009e+00 1.5075028917e+00 2.6110716009e+00 
80500 4.8702884363e+00 7.0028917616e-05 1.5075028917e+00 -2.6110716009e+00 1.5075028917e+00 2.6110716009e+00 
80600 4.8702884402e+00 7.0072787655e-05 1.5075028917e+00 -2.6110716009e+00 1.5075028917e+00 2.6110716009e+00 
80700 4.8702884441e+00 7.0116404329e-05 1.5075028917e+00 -2.6110716009e+00 1.5075028917e+00 2.6110716009e+00 
80800 4.8702884479e+00 7.0159760147e-05 1.5075028917e+00 -2.6110716009e+00 1.5075028917e+00 2.6110716009e+00 
80900 4.8702884517e+00 7.0202848236e-05 1.5075028917e+00 -2.6110716009e+00 1.5075028917e+00 2.6110716009e+00 
81000 4.8702884554e+00 7.0245662304e-05 1.5075028917e+00 -2.6110716009e+00 1.5075028917e+00 2.6110716009e+00 
81100 4.8702884591e+00 7.0288196598e-05 1.5075028917e+00 -2.6110716009e+00 1.5075028917e+00 2.6110716009e+00 
81200 4.8702884628e+00 7.0330445877e-05 1.5075028917e+00 -2.6110716009e+00 1.5075028917e+00 2.6110716009e+00 
81300 4.8702884664e+00 7.0372405370e-05 1.5075028917e+00 -2.6110716009e+00 1.5075028917e+00 2.6110716009e+00 
81400 4.8702884700e+00 7.0414070756e-05 1.5075028917e+00 -2.6110716009e+00 1.5075028917e+00 2.6110716009e+00 
81500 4.8702884735e+00 7.0455438123e-05 1.5075028917e+00 -2.6110716009e+00 1.5075028917e+00 2.6110716009e+00 
81600 4.8702884770e+00 7.0496503957e-05 1.5075028917e+00 -2.6110716009e+00 1.5075028917e+00 2.6110716009e+00 
81700 4.8702884804e+00 7.0537265102e-05 1.5075028917e+00 -2.6110716009e+00 1.5075028917e+00 2.6110716009e+00 
81800 4.8702884838e+00 7.0577718749e-05 1.5075028917e+00 -2.6110716009e+00 1.5075028917e+00 2.6110716009e+00 
81900 4.8702884872e+00 7.0617862409e-05 1.5075028917e+00 -2.6110716009e+00 1.5075028917e+00 2.6110716009e+00 
82000 4.8702884905e+00 7.0657693891e-05 1.5075028917e+00 -2.6110716009e+00 1.5075028917e+00 2.6110716009e+00 
82100 4.8702884938e+00 7.0697211287e-05 1.5075028917e+00 -2.6110716009e+00 1.5075028917e+00 2.6110716009e+00 
82200 4.8702884971e+00 7.0736412954e-05 1.5075028917e+00 -2.6110716009e+00 1.5075028917e+00 2.6110716009e+00 
82300 4.8702885001e+00 6.9402671793e-05 1.5075005455e+00 -2.6110675373e+00 1.5075005455e+00 2.6110675373e+00 
82400 4.8702885033e+00 6.9433733805e-05 1.5075005455e+00 -2.6110675373e+00 1.5075005455e+00 2.6110675373e+00 
82500 4.8702885064e+00 6.9464836110e-05 1.5075005455e+00 -2.6110675373e+00 1.5075005455e+00 2.6110675373e+00 
82600 4.8702885096e+00 6.9495958591e-05 1.5075005455e+00 -2.6110675373e+00 1.5075005455e+00 2.6110675373e+00 
82700 4.8702885126e+00 6.9527082530e-05 1.5075005455e+00 -2.6110675373e+00 1.5075005455e+00 2.6110675373e+00 
82800 4.8702885157e+00 6.9558190520e-05 1.5075005455e+00 -2.6110675373e+00 1.5075005455e+00 2.6110675373e+00 
82900 4.8702885187e+00 6.9589266373e-05 1.5075005455e+00 -2.6110675373e+00 1.5075005455e+00 2.6110675373e+00 
83000 4.8702885217e+00 6.9620295045e-05 1.5075005455e+00 -2.6110675373e+00 1.5075005455e+00 2.6110675373e+00 
83100 4.8702885246e+00 6.9651262554e-05 1.5075005455e+00 -2.6110675373e+00 1.5075005455e+00 2.6110675373e+00 
83200 4.8702885275e+00 6.9682155915e-05 1.5075005455e+00 -2.6110675373e+00 1.5075005455e+00 2.6110675373e+00 
83300 4.8702885304e+00 6.9712963073e-05 1.5075005455e+00 -2.6110675373e+00 1.5075005455e+00 2.6110675373e+00 
83400 4.8702885332e+00 6.9743672840e-05 1.5075005455e+00 -2.6110675373e+00 1.5075005455e+00 2.6110675373e+00 
83500 4.8702885360e+00 6.9774274841e-05 1.5075005455e+00 -2.6110675373e+00 1.5075005455e+00 2.6110675373e+00 
83600 4.8702885388e+00 6.9804759458e-05 1.5075005455e+00 -2.6110675373e+00 1.5075005455e+00 2.6110675373e+00 
83700 4.8702885415e+00 6.9835117782e-05 1.5075005455e+00 -2.6110675373e+00 1.5075005455e+00 2.6110675373e+00 
83800 4.8702885443e+00 6.9865341565e-05 1.5075005455e+00 -2.6110675373e+00 1.5075005455e+00 2.6110675373e+00 
83900 4.8702885469e+00 6.9895423180e-05 1.5075005455e+00 -2.6110675373e+00 1.5075005455e+00 2.6110675373e+00 
84000 4.8702885496e+00 6.9925355577e-05 1.5075005455e+00 -2.6110675373e+00 1.5075005455e+00 2.6110675373e+00 
84100 4.8702885522e+00 6.9955132249e-05 1.5075005455e+00 -2.6110675373e+00 1.5075005455e+00 2.6110675373e+00 
84200 4.8702885548e+00 6.9984747195e-05 1.5075005455e+00 -2.6110675373e+00 1.5075005455e+00 2.6110675373e+00 
84300 4.8702885574e+00 7.0014194886e-05 1.5075005455e+00 -2.6110675373e+00 1.5075005455e+00 2.6110675373e+00 
84400 4.8702885599e+00 7.0043470236e-05 1.5075005455e+00 -2.6110675373e+00 1.5075005455e+00 2.6110675373e+00 
84500 4.8702885624e+00 7.0072568575e-05 1.5075005455e+00 -2.6110675373e+00 1.5075005455e+00 2.6110675373e+00 
84600 4.8702885649e+00 7.0101485620e-05 1.5075005455e+00 -2.6110675373e+00 1.5075005455e+00 2.6110675373e+00 
84700 4.8702885673e+00 7.0130217450e-05 1.5075005455e+00 -2.6110675373e+00 1.5075005455e+00 2.6110675373e+00 
84800 4.8702885698e+00 7.0158760486e-05 1.5075005455e+00 -2.6110675373e+00 1.5075005455e+00 2.6110675373e+00 
84900 4.8702885722e+00 7.0187111465e-05 1.5075005455e+00 -2.6110675373e+00 1.5075005455e+00 2.6110675373e+00 
85000 4.8702885745e+00 7.0215267424e-05 1.5075005455e+00 -2.6110675373e+00 1.5075005455e+00 2.6110675373e+00 
85100 4.8702885769e+00 7.0243225677e-05 1.5075005455e+00 -2.6110675373e+00 1.5075005455e+00 2.6110675373e+00 
85200 4.8702885792e+00 7.0270983802e-05 1.5075005455e+00 -2.6110675373e+00 1.5075005455e+00 2.6110675373e+00 
85300 4.8702885815e+00 7.0298539621e-05 1.5075005455e+00 -2.6110675373e+00 1.5075005455e+00 2.6110675373e+00 
85400 4.8702885837e+00 7.0325891185e-05 1.5075005455e+00 -2.6110675373e+00 1.5075005455e+00 2.6110675373e+00 
85500 4.8702885860e+00 7.0353036762e-05 1.5075005455e+00 -2.6110675373e+00 1.5075005455e+00 2.6110675373e+00 
85600 4.8702885882e+00 7.0379974819e-05 1.5075005455e+00 -2.6110675373e+00 1.5075005455e+00 2.6110675373e+00 
85700 4.8702885904e+00 7.0406704016e-05 1.5075005455e+00 -2.6110675373e+00 1.5075005455e+00 2.6110675373e+00 
85800 4.8702885925e+00 7.0433223189e-05 1.5075005455e+00 -2.6110675373e+00 1.5075005455e+00 2.6110675373e+00 
85900 4.8702885947e+00 7.0459531339e-05 1.5075005455e+00 -2.6110675373e+00 1.5075005455e+00 2.6110675373e+00 
86000 4.8702885968e+00 7.0485627627e-05 1.5075005455e+00 -2.6110675373e+00 1.5075005455e+00 2.6110675373e+00 
86100 4.8702885989e+00 7.0511511358e-05 1.5075005455e+00 -2.6110675373e+00 1.5075005455e+00 2.6110675373e+00 
86200 4.8702886009e+00 7.0537181976e-05 1.5075005455e+00 -2.6110675373e+00 1.5075005455e+00 2.6110675373e+00 
86300 4.8702886030e+00 7.0562639053e-05 1.5075005455e+00 -2.6110675373e+00 1.5075005455e+00 2.6110675373e+00 
86400 4.8702886050e+00 7.0587882285e-05 1.5075005455e+00 -2.6110675373e+00 1.5075005455e+00 2.6110675373e+00 
86500 4.8702886070e+00 7.0612911479e-05 1.5075005455e+00 -2.6110675373e+00 1.5075005455e+00 2.6110675373e+00 
86600 4.8702886090e+00 7.0637726551e-05 1.5075005455e+00 -2.6110675373e+00 1.5075005455e+00 2.6110675373e+00 
86700 4.8702886109e+00 7.0662327518e-05 1.5075005455e+00 -2.6110675373e+00 1.5075005455e+00 2.6110675373e+00 
86800 4.8702886128e+00 7.0686714492e-05 1.5075005455e+00 -2.6110675373e+00 1.5075005455e+00 2.6110675373e+00 
86900 4.8702886148e+00 7.0710887670e-05 1.5075005455e+00 -2.6110675373e+00 1.5075005455e+00 2.6110675373e+00 
87000 4.8702886164e+00 6.9362729781e-05 1.5074982002e+00 -2.6110634751e+00 1.5074982002e+00 2.6110634751e+00 
87100 4.8702886183e+00 6.9378974634e-05 1.5074982002e+00 -2.6110634751e+00 1.5074982002e+00 2.6110634751e+00 
87200 4.8702886201e+00 6.9395366179e-05 1.5074982002e+00 -2.6110634751e+00 1.5074982002e+00 2.6110634751e+00 
87300 4.8702886219e+00 6.9411885549e-05 1.5074982002e+00 -2.6110634751e+00 1.5074982002e+00 2.6110634751e+00 
87400 4.8702886238e+00 6.9428515155e-05 1.5074982002e+00 -2.6110634751e+00 1.5074982002e+00 2.6110634751e+00 
87500 4.8702886255e+00 6.9445238595e-05 1.5074982002e+00 -2.6110634751e+00 1.5074982002e+00 2.6110634751e+00 
87600 4.8702886273e+00 6.9462040577e-05 1.5074982002e+00 -2.6110634751e+00 1.5074982002e+00 2.6110634751e+00 
87700 4.8702886290e+00 6.9478906847e-05 1.5074982002e+00 -2.6110634751e+00 1.5074982002e+00 2.6110634751e+00 
87800 4.8702886308e+00 6.9495824116e-05 1.5074982002e+00 -2.6110634751e+00 1.5074982002e+00 2.6110634751e+00 
87900 4.8702886325e+00 6.9512780001e-05 1.5074982002e+00 -2.6110634751e+00 1.5074982002e+00 2.6110634751e+00 
88000 4.8702886341e+00 6.9529762957e-05 1.5074982002e+00 -2.6110634751e+00 1.5074982002e+00 2.6110634751e+00 
88100 4.8702886358e+00 6.9546762232e-05 1.5074982002e+00 -2.6110634751e+00 1.5074982002e+00 2.6110634751e+00 
88200 4.8702886375e+00 6.9563767804e-05 1.5074982002e+00 -2.6110634751e+00 1.5074982002e+00 2.6110634751e+00 
88300 4.8702886391e+00 6.9580770341e-05 1.5074982002e+00 -2.6110634751e+00 1.5074982002e+00 2.6110634751e+00 
88400 4.8702886407e+00 6.9597761150e-05 1.5074982002e+00 -2.6110634751e+00 1.5074982002e+00 2.6110634751e+00 
88500 4.8702886423e+00 6.9614732138e-05 1.5074982002e+00 -2.6110634751e+00 1.5074982002e+00 2.6110634751e+00 
88600 4.8702886439e+00 6.9631675772e-05 1.5074982002e+00 -2.6110634751e+00 1.5074982002e+00 2.6110634751e+00 
88700 4.8702886454e+00 6.9648585039e-05 1.5074982002e+00 -2.6110634751e+00 1.5074982002e+00 2.6110634751e+00 
88800 4.8702886469e+00 6.9665453418e-05 1.5074982002e+00 -2.6110634751e+00 1.5074982002e+00 2.6110634751e+00 
88900 4.8702886485e+00 6.9682274844e-05 1.5074982002e+00 -2.6110634751e+00 1.5074982002e+00 2.6110634751e+00 
89000 4.8702886500e+00 6.9699043677e-05 1.5074982002e+00 -2.6110634751e+00 1.5074982002e+00 2.6110634751e+00 
89100 4.8702886515e+00 6.9715754678e-05 1.5074982002e+00 -2.6110634751e+00 1.5074982002e+00 2.6110634751e+00 
89200 4.8702886529e+00 6.9732402980e-05 1.5074982002e+00 -2.6110634751e+00 1.5074982002e+00 2.6110634751e+00 
89300 4.8702886544e+00 6.9748984066e-05 1.5074982002e+00 -2.6110634751e+00 1.5074982002e+00 2.6110634751e+00 
89400 4.8702886558e+00 6.9765493746e-05 1.5074982002e+00 -2.6110634751e+00 1.5074982002e+00 2.6110634751e+00 
89500 4.8702886572e+00 6.9781928134e-05 1.5074982002e+00 -2.6110634751e+00 1.5074982002e+00 2.6110634751e+00 
89600 4.8702886586e+00 6.9798283631e-05 1.5074982002e+00 -2.6110634751e+00 1.5074982002e+00 2.6110634751e+00 
89700 4.8702886600e+00 6.9814556905e-05 1.5074982002e+00 -2.6110634751e+00 1.5074982002e+00 2.6110634751e+00 
89800 4.8702886614e+00 6.9830744875e-05 1.5074982002e+00 -2.6110634751e+00 1.5074982002e+00 2.6110634751e+00 
89900 4.8702886628e+00 6.9846844696e-05 1.5074982002e+00 -2.6110634751e+00 1.5074982002e+00 2.6110634751e+00 
90000 4.8702886641e+00 6.9862853740e-05 1.5074982002e+00 -2.6110634751e+00 1.5074982002e+00 2.6110634751e+00 
90100 4.8702886654e+00 6.9878769587e-05 1.5074982002e+00 -2.6110634751e+00 1.5074982002e+00 2.6110634751e+00 
90200 4.8702886667e+00 6.9894590009e-05 1.5074982002e+00 -2.6110634751e+00 1.5074982002e+00 2.6110634751e+00 
90300 4.8702886680e+00 6.9910312961e-05 1.5074982002e+00 -2.6110634751e+00 1.5074982002e+00 2.6110634751e+00 
90400 4.8702886693e+00 6.9925936563e-05 1.5074982002e+00 -2.6110634751e+00 1.5074982002e+00 2.6110634751e+00 
90500 4.8702886706e+00 6.9941459100e-05 1.5074982002e+00 -2.6110634751e+00 1.5074982002e+00 2.6110634751e+00 
90600 4.8702886718e+00 6.9956879003e-05 1.5074982002e+00 -2.6110634751e+00 1.5074982002e+00 2.6110634751e+00 
90700 4.8702886731e+00 6.9972194842e-05 1.5074982002e+00 -2.6110634751e+00 1.5074982002e+00 2.6110634751e+00 
90800 4.8702886743e+00 6.9987405320e-05 1.5074982002e+00 -2.6110634751e+00 1.5074982002e+00 2.6110634751e+00 
90900 4.8702886755e+00 7.0002509265e-05 1.5074982002e+00 -2.6110634751e+00 1.5074982002e+00 2.6110634751e+00 
91000 4.8702886767e+00 7.0017505618e-05 1.5074982002e+00 -2.6110634751e+00 1.5074982002e+00 2.6110634751e+00 
91100 4.8702886779e+00 7.0032393429e-05 1.5074982002e+00 -2.6110634751e+00 1.5074982002e+00 2.6110634751e+00 
91200 4.8702886791e+00 7.0047171855e-05 1.5074982002e+00 -2.6110634751e+00 1.5074982002e+00 2.6110634751e+00 
91300 4.8702886802e+00 7.0061840143e-05 1.5074982002e+00 -2.6110634751e+00 1.5074982002e+00 2.6110634751e+00 
91400 4.8702886814e+00 7.0076397634e-05 1.5074982002e+00 -2.6110634751e+00 1.5074982002e+00 2.6110634751e+00 
91500 4.8702886825e+00 7.0090843754e-05 1.5074982002e+00 -2.6110634751e+00 1.5074982002e+00 2.6110634751e+00 
91600 4.8702886836e+00 7.0105178008e-05 1.5074982002e+00 -2.6110634751e+00 1.5074982002e+00 2.6110634751e+00 
91700 4.8702886847e+00 7.0119399976e-05 1.5074982002e+00 -2.6110634751e+00 1.5074982002e+00 2.6110634751e+00 
91800 4.8702886858e+00 7.0133509312e-05 1.5074982002e+00 -2.6110634751e+00 1.5074982002e+00 2.6110634751e+00 
91900 4.8702886869e+00 7.0147505732e-05 1.5074982002e+00 -2.6110634751e+00 1.5074982002e+00 2.6110634751e+00 
92000 4.8702886880e+00 7.0161389019e-05 1.5074982002e+00 -2.6110634751e+00 1.5074982002e+00 2.6110634751e+00 
92100 4.8702886890e+00 7.0175159013e-05 1.5074982002e+00 -2.6110634751e+00 1.5074982002e+00 2.6110634751e+00 
92200 4.8702886901e+00 7.0188815612e-05 1.5074982002e+00 -2.6110634751e+00 1.5074982002e+00 2.6110634751e+00 
92300 4.8702886911e+00 7.0202358764e-05 1.5074982002e+00 -2.6110634751e+00 1.5074982002e+00 2.6110634751e+00 
92400 4.8702886921e+00 7.0215788467e-05 1.5074982002e+00 -2.6110634751e+00 1.5074982002e+00 2.6110634751e+00 
92500 4.8702886932e+00 7.0229104770e-05 1.5074982002e+00 -2.6110634751e+00 1.5074982002e+00 2.6110634751e+00 
92600 4.8702886942e+00 7.0242307760e-05 1.5074982002e+00 -2.6110634751e+00 1.5074982002e+00 2.6110634751e+00 
92700 4.8702886952e+00 7.0255397570e-05 1.5074982002e+00 -2.6110634751e+00 1.5074982002e+00 2.6110634751e+00 
92800 4.8702886961e+00 7.0268374371e-05 1.5074982002e+00 -2.6110634751e+00 1.5074982002e+00 2.6110634751e+00 
92900 4.8702886971e+00 7.0281238370e-05 1.5074982002e+00 -2.6110634751e+00 1.5074982002e+00 2.6110634751e+00 
93000 4.8702886981e+00 7.0293989811e-05 1.5074982002e+00 -2.6110634751e+00 1.5074982002e+00 2.6110634751e+00 
93100 4.8702886990e+00 7.0306628969e-05 1.5074982002e+00 -2.6110634751e+00 1.5074982002e+00 2.6110634751e+00 
93200 4.8702886999e+00 7.0319156152e-05 1.5074982002e+00 -2.6110634751e+00 1.5074982002e+00 2.6110634751e+00 
93300 4.8702887009e+00 7.0331571698e-05 1.5074982002e+00 -2.6110634751e+00 1.5074982002e+00 2.6110634751e+00 
93400 4.8702887018e+00 7.0343875968e-05 1.5074982002e+00 -2.6110634751e+00 1.5074982002e+00 2.6110634751e+00 
93500 4.8702887027e+00 7.0356069356e-05 1.5074982002e+00 -2.6110634751e+00 1.5074982002e+00 2.6110634751e+00 
93600 4.8702887036e+00 7.0368152276e-05 1.5074982002e+00 -2.6110634751e+00 1.5074982002e+00 2.6110634751e+00 
93700 4.8702887045e+00 7.0380125167e-05 1.5074982002e+00 -2.6110634751e+00 1.5074982002e+00 2.6110634751e+00 
93800 4.8702887053e+00 7.0391988490e-05 1.5074982002e+00 -2.6110634751e+00 1.5074982002e+00 2.6110634751e+00 
93900 4.8702887062e+00 7.0403742726e-05 1.5074982002e+00 -2.6110634751e+00 1.5074982002e+00 2.6110634751e+00 
94000 4.8702887070e+00 7.0415388376e-05 1.5074982002e+00 -2.6110634751e+00 1.5074982002e+00 2.6110634751e+00 
94100 4.8702887079e+00 7.0426925960e-05 1.5074982002e+00 -2.6110634751e+00 1.5074982002e+00 2.6110634751e+00 
94200 4.8702887087e+00 7.0438356016e-05 1.5074982002e+00 -2.6110634751e+00 1.5074982002e+00 2.6110634751e+00 
94300 4.8702887096e+00 7.0449679096e-05 1.5074982002e+00 -2.6110634751e+00 1.5074982002e+00 2.6110634751e+00 
94400 4.8702887104e+00 7.0460895769e-05 1.5074982002e+00 -2.6110634751e+00 1.5074982002e+00 2.6110634751e+00 
94500 4.8702887112e+00 7.0472006619e-05 1.5074982002e+00 -2.6110634751e+00 1.5074982002e+00 2.6110634751e+00 
94600 4.8702887120e+00 7.0483012243e-05 1.5074982002e+00 -2.6110634751e+00 1.5074982002e+00 2.6110634751e+00 
94700 4.8702887128e+00 7.0493913249e-05 1.5074982002e+00 -2.6110634751e+00 1.5074982002e+00 2.6110634751e+00 
94800 4.8702887136e+00 7.0504710262e-05 1.5074982002e+00 -2.6110634751e+00 1.5074982002e+00 2.6110634751e+00 
94900 4.8702887143e+00 7.0515403911e-05 1.5074982002e+00 -2.6110634751e+00 1.5074982002e+00 2.6110634751e+00 
95000 4.8702887151e+00 7.0525994844e-05 1.5074982002e+00 -2.6110634751e+00 1.5074982002e+00 2.6110634751e+00 
95100 4.8702887158e+00 7.0536483710e-05 1.5074982002e+00 -2.6110634751e+00 1.5074982002e+00 2.6110634751e+00 
95200 4.8702887166e+00 7.0546871174e-05 1.5074982002e+00 -2.6110634751e+00 1.5074982002e+00 2.6110634751e+00 
95300 4.8702887173e+00 7.0557157908e-05 1.5074982002e+00 -2.6110634751e+00 1.5074982002e+00 2.6110634751e+00 
95400 4.8702887181e+00 7.0567344590e-05 1.5074982002e+00 -2.6110634751e+00 1.5074982002e+00 2.6110634751e+00 
95500 4.8702887188e+00 7.0577431907e-05 1.5074982002e+00 -2.6110634751e+00 1.5074982002e+00 2.6110634751e+00 
95600 4.8702887195e+00 7.0587420551e-05 1.5074982002e+00 -2.6110634751e+00 1.5074982002e+00 2.6110634751e+00 
95700 4.8702887202e+00 7.0597311224e-05 1.5074982002e+00 -2.6110634751e+00 1.5074982002e+00 2.6110634751e+00 
95800 4.8702887209e+00 7.0607104630e-05 1.5074982002e+00 -2.6110634751e+00 1.5074982002e+00 2.6110634751e+00 
95900 4.8702887216e+00 7.0616801480e-05 1.5074982002e+00 -2.6110634751e+00 1.5074982002e+00 2.6110634751e+00 
96000 4.8702887223e+00 7.0626402491e-05 1.5074982002e+00 -2.6110634751e+00 1.5074982002e+00 2.6110634751e+00 
96100 4.8702887229e+00 7.0635908383e-05 1.5074982002e+00 -2.6110634751e+00 1.5074982002e+00 2.6110634751e+00 
96200 4.8702887236e+00 7.0645319878e-05 1.5074982002e+00 -2.6110634751e+00 1.5074982002e+00 2.6110634751e+00 
96300 4.8702887243e+00 7.0654637707e-05 1.5074982002e+00 -2.6110634751e+00 1.5074982002e+00 2.6110634751e+00 
96400 4.8702887249e+00 7.0663862600e-05 1.5074982002e+00 -2.6110634751e+00 1.5074982002e+00 2.6110634751e+00 
96500 4.8702887256e+00 7.0672995290e-05 1.5074982002e+00 -2.6110634751e+00 1.5074982002e+00 2.6110634751e+00 
96600 4.8702887262e+00 7.0682036515e-05 1.5074982002e+00 -2.6110634751e+00 1.5074982002e+00 2.6110634751e+00 
96700 4.8702887268e+00 7.0690987012e-05 1.5074982002e+00 -2.6110634751e+00 1.5074982002e+00 2.6110634751e+00 
96800 4.8702887275e+00 7.0699847523e-05 1.5074982002e+00 -2.6110634751e+00 1.5074982002e+00 2.6110634751e+00 
96900 4.8702887281e+00 7.0708618789e-05 1.5074982002e+00 -2.6110634751e+00 1.5074982002e+00 2.6110634751e+00 
97000 4.8702887287e+00 7.0717301554e-05 1.5074982002e+00 -2.6110634751e+00 1.5074982002e+00 2.6110634751e+00 
97100 4.8702887291e+00 6.9353664130e-05 1.5074958547e+00 -2.6110594125e+00 1.5074958547e+00 2.6110594125e+00 
97200 4.8702887297e+00 6.9354669645e-05 1.5074958547e+00 -2.6110594125e+00 1.5074958547e+00 2.6110594125e+00 
97300 4.8702887303e+00 6.9355948331e-05 1.5074958547e+00 -2.6110594125e+00 1.5074958547e+00 2.6110594125e+00 
97400 4.8702887309e+00 6.9357481562e-05 1.5074958547e+00 -2.6110594125e+00 1.5074958547e+00 2.6110594125e+00 
97500 4.8702887314e+00 6.9359251919e-05 1.5074958547e+00 -2.6110594125e+00 1.5074958547e+00 2.6110594125e+00 
97600 4.8702887320e+00 6.9361243111e-05 1.5074958547e+00 -2.6110594125e+00 1.5074958547e+00 2.6110594125e+00 
97700 4.8702887326e+00 6.9363439899e-05 1.5074958547e+00 -2.6110594125e+00 1.5074958547e+00 2.6110594125e+00 
97800 4.8702887331e+00 6.9365828027e-05 1.5074958547e+00 -2.6110594125e+00 1.5074958547e+00 2.6110594125e+00 
97900 4.8702887337e+00 6.9368394152e-05 1.5074958547e+00 -2.6110594125e+00 1.5074958547e+00 2.6110594125e+00 
98000 4.8702887342e+00 6.9371125785e-05 1.5074958547e+00 -2.6110594125e+00 1.5074958547e+00 2.6110594125e+00 
98100 4.8702887348e+00 6.9374011237e-05 1.5074958547e+00 -2.6110594125e+00 1.5074958547e+00 2.6110594125e+00 
98200 4.8702887353e+00 6.9377039560e-05 1.5074958547e+00 -2.6110594125e+00 1.5074958547e+00 2.6110594125e+00 
98300 4.8702887358e+00 6.9380200499e-05 1.5074958547e+00 -2.6110594125e+00 1.5074958547e+00 2.6110594125e+00 
98400 4.8702887363e+00 6.9383484448e-05 1.5074958547e+00 -2.6110594125e+00 1.5074958547e+00 2.6110594125e+00 
98500 4.8702887369e+00 6.9386882405e-05 1.5074958547e+00 -2.6110594125e+00 1.5074958547e+00 2.6110594125e+00 
98600 4.8702887374e+00 6.9390385931e-05 1.5074958547e+00 -2.6110594125e+00 1.5074958547e+00 2.6110594125e+00 
98700 4.8702887379e+00 6.9393987115e-05 1.5074958547e+00 -2.6110594125e+00 1.5074958547e+00 2.6110594125e+00 
98800 4.8702887384e+00 6.9397678538e-05 1.5074958547e+00 -2.6110594125e+00 1.5074958547e+00 2.6110594125e+00 
98900 4.8702887389e+00 6.9401453237e-05 1.5074958547e+00 -2.6110594125e+00 1.5074958547e+00 2.6110594125e+00 
99000 4.8702887393e+00 6.9405304682e-05 1.5074958547e+00 -2.6110594125e+00 1.5074958547e+00 2.6110594125e+00 
99100 4.8702887398e+00 6.9409226740e-05 1.5074958547e+00 -2.6110594125e+00 1.5074958547e+00 2.6110594125e+00 
99200 4.8702887403e+00 6.9413213656e-05 1.5074958547e+00 -2.6110594125e+00 1.5074958547e+00 2.6110594125e+00 
99300 4.8702887408e+00 6.9417260020e-05 1.5074958547e+00 -2.6110594125e+00 1.5074958547e+00 2.6110594125e+00 
99400 4.8702887412e+00 6.9421360753e-05 1.5074958547e+00 -2.6110594125e+00 1.5074958547e+00 2.6110594125e+00 
99500 4.8702887417e+00 6.9425511079e-05 1.5074958547e+00 -2.6110594125e+00 1.5074958547e+00 2.6110594125e+00 
99600 4.8702887422e+00 6.9429706510e-05 1.5074958547e+00 -2.6110594125e+00 1.5074958547e+00 2.6110594125e+00 
99700 4.8702887426e+00 6.9433942823e-05 1.5074958547e+00 -2.6110594125e+00 1.5074958547e+00 2.6110594125e+00 
99800 4.8702887431e+00 6.9438216047e-05 1.5074958547e+00 -2.6110594125e+00 1.5074958547e+00 2.6110594125e+00 
99900 4.8702887435e+00 6.9442522443e-05 1.5074958547e+00 -2.6110594125e+00 1.5074958547e+00 2.6110594125e+00 
100000 4.8702887439e+00 6.9446858493e-05 1.5074958547e+00 -2.6110594125e+00 1.5074958547e+00 2.6110594125e+00 
100100 4.8702887444e+00 6.9451220883e-05 1.5074958547e+00 -2.6110594125e+00 1.5074958547e+00 2.6110594125e+00 
100200 4.8702887448e+00 6.9455606491e-05 1.5074958547e+00 -2.6110594125e+00 1.5074958547e+00 2.6110594125e+00 
100300 4.8702887452e+00 6.9460012377e-05 1.5074958547e+00 -2.6110594125e+00 1.5074958547e+00 2.6110594125e+00 
100400 4.8702887456e+00 6.9464435766e-05 1.5074958547e+00 -2.6110594125e+00 1.5074958547e+00 2.6110594125e+00 
100500 4.8702887460e+00 6.9468874044e-05 1.5074958547e+00 -2.6110594125e+00 1.5074958547e+00 2.6110594125e+00 
100600 4.8702887465e+00 6.9473324746e-05 1.5074958547e+00 -2.6110594125e+00 1.5074958547e+00 2.6110594125e+00 
100700 4.8702887469e+00 6.9477785544e-05 1.5074958547e+00 -2.6110594125e+00 1.5074958547e+00 2.6110594125e+00 
100800 4.8702887473e+00 6.9482254241e-05 1.5074958547e+00 -2.6110594125e+00 1.5074958547e+00 2.6110594125e+00 
100900 4.8702887477e+00 6.9486728765e-05 1.5074958547e+00 -2.6110594125e+00 1.5074958547e+00 2.6110594125e+00 
101000 4.8702887480e+00 6.9491207159e-05 1.5074958547e+00 -2.6110594125e+00 1.5074958547e+00 2.6110594125e+00 
101100 4.8702887484e+00 6.9495687571e-05 1.5074958547e+00 -2.6110594125e+00 1.5074958547e+00 2.6110594125e+00 
101200 4.8702887488e+00 6.9500168256e-05 1.5074958547e+00 -2.6110594125e+00 1.5074958547e+00 2.6110594125e+00 
101300 4.8702887492e+00 6.9504647562e-05 1.5074958547e+00 -2.6110594125e+00 1.5074958547e+00 2.6110594125e+00 
101400 4.8702887496e+00 6.9509123926e-05 1.5074958547e+00 -2.6110594125e+00 1.5074958547e+00 2.6110594125e+00 
101500 4.8702887499e+00 6.9513595876e-05 1.5074958547e+00 -2.6110594125e+00 1.5074958547e+00 2.6110594125e+00 
101600 4.8702887503e+00 6.9518062014e-05 1.5074958547e+00 -2.6110594125e+00 1.5074958547e+00 2.6110594125e+00 
101700 4.8702887507e+00 6.9522521020e-05 1.5074958547e+00 -2.6110594125e+00 1.5074958547e+00 2.6110594125e+00 
101800 4.8702887510e+00 6.9526971648e-05 1.5074958547e+00 -2.6110594125e+00 1.5074958547e+00 2.6110594125e+00 
101900 4.8702887514e+00 6.9531412715e-05 1.5074958547e+00 -2.6110594125e+00 1.5074958547e+00 2.6110594125e+00 
102000 4.8702887517e+00 6.9535843105e-05 1.5074958547e+00 -2.6110594125e+00 1.5074958547e+00 2.6110594125e+00 
102100 4.8702887521e+00 6.9540261762e-05 1.5074958547e+00 -2.6110594125e+00 1.5074958547e+00 2.6110594125e+00 
102200 4.8702887524e+00 6.9544667685e-05 1.5074958547e+00 -2.6110594125e+00 1.5074958547e+00 2.6110594125e+00 
102300 4.8702887527e+00 6.9549059929e-05 1.5074958547e+00 -2.6110594125e+00 1.5074958547e+00 2.6110594125e+00 
102400 4.8702887531e+00 6.9553437598e-05 1.5074958547e+00 -2.6110594125e+00 1.5074958547e+00 2.6110594125e+00 
102500 4.8702887534e+00 6.9557799848e-05 1.5074958547e+00 -2.6110594125e+00 1.5074958547e+00 2.6110594125e+00 
102600 4.8702887537e+00 6.9562145878e-05 1.5074958547e+00 -2.6110594125e+00 1.5074958547e+00 2.6110594125e+00 
102700 4.8702887540e+00 6.9566474930e-05 1.5074958547e+00 -2.6110594125e+00 1.5074958547e+00 2.6110594125e+00 
102800 4.8702887544e+00 6.9570786291e-05 1.5074958547e+00 -2.6110594125e+00 1.5074958547e+00 2.6110594125e+00 
102900 4.8702887547e+00 6.9575079283e-05 1.5074958547e+00 -2.6110594125e+00 1.5074958547e+00 2.6110594125e+00 
103000 4.8702887550e+00 6.9579353270e-05 1.5074958547e+00 -2.6110594125e+00 1.5074958547e+00 2.6110594125e+00 
103100 4.8702887553e+00 6.9583607647e-05 1.5074958547e+00 -2.6110594125e+00 1.5074958547e+00 2.6110594125e+00 
103200 4.8702887556e+00 6.9587841846e-05 1.5074958547e+00 -2.6110594125e+00 1.5074958547e+00 2.6110594125e+00 
103300 4.8702887559e+00 6.9592055331e-05 1.5074958547e+00 -2.6110594125e+00 1.5074958547e+00 2.6110594125e+00 
103400 4.8702887562e+00 6.9596247595e-05 1.5074958547e+00 -2.6110594125e+00 1.5074958547e+00 2.6110594125e+00 
103500 4.8702887565e+00 6.9600418163e-05 1.5074958547e+00 -2.6110594125e+00 1.5074958547e+00 2.6110594125e+00 
103600 4.8702887568e+00 6.9604566585e-05 1.5074958547e+00 -2.6110594125e+00 1.5074958547e+00 2.6110594125e+00 
103700 4.8702887571e+00 6.9608692441e-05 1.5074958547e+00 -2.6110594125e+00 1.5074958547e+00 2.6110594125e+00 
103800 4.8702887574e+00 6.9612795333e-05 1.5074958547e+00 -2.6110594125e+00 1.5074958547e+00 2.6110594125e+00 
103900 4.8702887577e+00 6.9616874892e-05 1.5074958547e+00 -2.6110594125e+00 1.5074958547e+00 2.6110594125e+00 
104000 4.8702887579e+00 6.9620930768e-05 1.5074958547e+00 -2.6110594125e+00 1.5074958547e+00 2.6110594125e+00 
104100 4.8702887582e+00 6.9624962637e-05 1.5074958547e+00 -2.6110594125e+00 1.5074958547e+00 2.6110594125e+00 
104200 4.8702887585e+00 6.9628970192e-05 1.5074958547e+00 -2.6110594125e+00 1.5074958547e+00 2.6110594125e+00 
104300 4.8702887588e+00 6.9632953153e-05 1.5074958547e+00 -2.6110594125e+00 1.5074958547e+00 2.6110594125e+00 
104400 4.8702887590e+00 6.9636911253e-05 1.5074958547e+00 -2.6110594125e+00 1.5074958547e+00 2.6110594125e+00 
104500 4.8702887593e+00 6.9640844248e-05 1.5074958547e+00 -2.6110594125e+00 1.5074958547e+00 2.6110594125e+00 
104600 4.8702887595e+00 6.9644751912e-05 1.5074958547e+00 -2.6110594125e+00 1.5074958547e+00 2.6110594125e+00 
104700 4.8702887598e+00 6.9648634035e-05 1.5074958547e+00 -2.6110594125e+00 1.5074958547e+00 2.6110594125e+00 
104800 4.8702887601e+00 6.9652490423e-05 1.5074958547e+00 -2.6110594125e+00 1.5074958547e+00 2.6110594125e+00 
104900 4.8702887603e+00 6.9656320901e-05 1.5074958547e+00 -2.6110594125e+00 1.5074958547e+00 2.6110594125e+00 
105000 4.8702887606e+00 6.9660125307e-05 1.5074958547e+00 -2.6110594125e+00 1.5074958547e+00 2.6110594125e+00 
105100 4.8702887608e+00 6.9663903495e-05 1.5074958547e+00 -2.6110594125e+00 1.5074958547e+00 2.6110594125e+00 
105200 4.8702887611e+00 6.9667655332e-05 1.5074958547e+00 -2.6110594125e+00 1.5074958547e+00 2.6110594125e+00 
105300 4.8702887613e+00 6.9671380701e-05 1.5074958547e+00 -2.6110594125e+00 1.5074958547e+00 2.6110594125e+00 
105400 4.8702887615e+00 6.9675079495e-05 1.5074958547e+00 -2.6110594125e+00 1.5074958547e+00 2.6110594125e+00 
105500 4.8702887618e+00 6.9678751623e-05 1.5074958547e+00 -2.6110594125e+00 1.5074958547e+00 2.6110594125e+00 
105600 4.8702887620e+00 6.9682397003e-05 1.5074958547e+00 -2.6110594125e+00 1.5074958547e+00 2.6110594125e+00 
105700 4.8702887622e+00 6.9686015568e-05 1.5074958547e+00 -2.6110594125e+00 1.5074958547e+00 2.6110594125e+00 
105800 4.8702887625e+00 6.9689607260e-05 1.5074958547e+00 -2.6110594125e+00 1.5074958547e+00 2.6110594125e+00 
105900 4.8702887627e+00 6.9693172033e-05 1.5074958547e+00 -2.6110594125e+00 1.5074958547e+00 2.6110594125e+00 
106000 4.8702887629e+00 6.9696709850e-05 1.5074958547e+00 -2.6110594125e+00 1.5074958547e+00 2.6110594125e+00 
106100 4.8702887631e+00 6.9700220686e-05 1.5074958547e+00 -2.6110594125e+00 1.5074958547e+00 2.6110594125e+00 
106200 4.8702887634e+00 6.9703704525e-05 1.5074958547e+00 -2.6110594125e+00 1.5074958547e+00 2.6110594125e+00 
106300 4.8702887636e+00 6.9707161360e-05 1.5074958547e+00 -2.6110594125e+00 1.5074958547e+00 2.6110594125e+00 
106400 4.8702887638e+00 6.9710591193e-05 1.5074958547e+00 -2.6110594125e+00 1.5074958547e+00 2.6110594125e+00 
106500 4.8702887640e+00 6.9713994035e-05 1.5074958547e+00 -2.6110594125e+00 1.5074958547e+00 2.6110594125e+00 
106600 4.8702887642e+00 6.9717369905e-05 1.5074958547e+00 -2.6110594125e+00 1.5074958547e+00 2.6110594125e+00 
106700 4.8702887644e+00 6.9720718831e-05 1.5074958547e+00 -2.6110594125e+00 1.5074958547e+00 2.6110594125e+00 
106800 4.8702887646e+00 6.9724040846e-05 1.5074958547e+00 -2.6110594125e+00 1.5074958547e+00 2.6110594125e+00 
106900 4.8702887648e+00 6.9727335995e-05 1.5074958547e+00 -2.6110594125e+00 1.5074958547e+00 2.6110594125e+00 
107000 4.8702887650e+00 6.9730604326e-05 1.5074958547e+00 -2.6110594125e+00 1.5074958547e+00 2.6110594125e+00 
107100 4.8702887652e+00 6.9733845895e-05 1.5074958547e+00 -2.6110594125e+00 1.5074958547e+00 2.6110594125e+00 
107200 4.8702887654e+00 6.9737060765e-05 1.5074958547e+00 -2.6110594125e+00 1.5074958547e+00 2.6110594125e+00 
107300 4.8702887656e+00 6.9740249006e-05 1.5074958547e+00 -2.6110594125e+00 1.5074958547e+00 2.6110594125e+00 
107400 4.8702887658e+00 6.9743410692e-05 1.5074958547e+00 -2.6110594125e+00 1.5074958547e+00 2.6110594125e+00 
107500 4.8702887660e+00 6.9746545906e-05 1.5074958547e+00 -2.6110594125e+00 1.5074958547e+00 2.6110594125e+00 
107600 4.8702887662e+00 6.9749654733e-05 1.5074958547e+00 -2.6110594125e+00 1.5074958547e+00 2.6110594125e+00 
107700 4.8702887664e+00 6.9752737265e-05 1.5074958547e+00 -2.6110594125e+00 1.5074958547e+00 2.6110594125e+00 
107800 4.8702887665e+00 6.9755793600e-05 1.5074958547e+00 -2.6110594125e+00 1.5074958547e+00 2.6110594125e+00 
107900 4.8702887667e+00 6.9758823840e-05 1.5074958547e+00 -2.6110594125e+00 1.5074958547e+00 2.6110594125e+00 
108000 4.8702887669e+00 6.9761828092e-05 1.5074958547e+00 -2.6110594125e+00 1.5074958547e+00 2.6110594125e+00 
108100 4.8702887671e+00 6.9764806467e-05 1.5074958547e+00 -2.6110594125e+00 1.5074958547e+00 2.6110594125e+00 
108200 4.8702887673e+00 6.9767759080e-05 1.5074958547e+00 -2.6110594125e+00 1.5074958547e+00 2.6110594125e+00 
108300 4.8702887674e+00 6.9770686052e-05 1.5074958547e+00 -2.6110594125e+00 1.5074958547e+00 2.6110594125e+00 
108400 4.8702887676e+00 6.9773587506e-05 1.5074958547e+00 -2.6110594125e+00 1.5074958547e+00 2.6110594125e+00 
108500 4.8702887678e+00 6.9776463570e-05 1.5074958547e+00 -2.6110594125e+00 1.5074958547e+00 2.6110594125e+00 
108600 4.8702887679e+00 6.9779314375e-05 1.5074958547e+00 -2.6110594125e+00 1.5074958547e+00 2.6110594125e+00 
108700 4.8702887681e+00 6.9782140054e-05 1.5074958547e+00 -2.6110594125e+00 1.5074958547e+00 2.6110594125e+00 
108800 4.8702887683e+00 6.9784940746e-05 1.5074958547e+00 -2.6110594125e+00 1.5074958547e+00 2.6110594125e+00 
108900 4.8702887684e+00 6.9787716591e-05 1.5074958547e+00 -2.6110594125e+00 1.5074958547e+00 2.6110594125e+00 
109000 4.8702887686e+00 6.9790467733e-05 1.5074958547e+00 -2.6110594125e+00 1.5074958547e+00 2.6110594125e+00 
109100 4.8702887687e+00 6.9793194319e-05 1.5074958547e+00 -2.6110594125e+00 1.5074958547e+00 2.6110594125e+00 
109200 4.8702887689e+00 6.9795896497e-05 1.5074958547e+00 -2.6110594125e+00 1.5074958547e+00 2.6110594125e+00 
109300 4.8702887691e+00 6.9798574418e-05 1.5074958547e+00 -2.6110594125e+00 1.5074958547e+00 2.6110594125e+00 
109400 4.8702887692e+00 6.9801228237e-05 1.5074958547e+00 -2.6110594125e+00 1.5074958547e+00 2.6110594125e+00 
109500 4.8702887694e+00 6.9803858109e-05 1.5074958547e+00 -2.6110594125e+00 1.5074958547e+00 2.6110594125e+00 
109600 4.8702887695e+00 6.9806464194e-05 1.5074958547e+00 -2.6110594125e+00 1.5074958547e+00 2.6110594125e+00 
109700 4.8702887697e+00 6.9809046649e-05 1.5074958547e+00 -2.6110594125e+00 1.5074958547e+00 2.6110594125e+00 
109800 4.8702887698e+00 6.9811605638e-05 1.5074958547e+00 -2.6110594125e+00 1.5074958547e+00 2.6110594125e+00 
109900 4.8702887700e+00 6.9814141323e-05 1.5074958547e+00 -2.6110594125e+00 1.5074958547e+00 2.6110594125e+00 
110000 4.8702887701e+00 6.9816653869e-05 1.5074958547e+00 -2.6110594125e+00 1.5074958547e+00 2.6110594125e+00 
110100 4.8702887702e+00 6.9819143443e-05 1.5074958547e+00 -2.6110594125e+00 1.5074958547e+00 2.6110594125e+00 
110200 4.8702887704e+00 6.9821610213e-05 1.5074958547e+00 -2.6110594125e+00 1.5074958547e+00 2.6110594125e+00 
110300 4.8702887705e+00 6.9824054347e-05 1.5074958547e+00 -2.6110594125e+00 1.5074958547e+00 2.6110594125e+00 
110400 4.8702887707e+00 6.9826476015e-05 1.5074958547e+00 -2.6110594125e+00 1.5074958547e+00 2.6110594125e+00 
110500 4.8702887708e+00 6.9828875390e-05 1.5074958547e+00 -2.6110594125e+00 1.5074958547e+00 2.6110594125e+00 
110600 4.8702887709e+00 6.9831252641e-05 1.5074958547e+00 -2.6110594125e+00 1.5074958547e+00 2.6110594125e+00 
110700 4.8702887711e+00 6.9833607943e-05 1.5074958547e+00 -2.6110594125e+00 1.5074958547e+00 2.6110594125e+00 
110800 4.8702887712e+00 6.9835941469e-05 1.5074958547e+00 -2.6110594125e+00 1.5074958547e+00 2.6110594125e+00 
110900 4.8702887713e+00 6.9838253392e-05 1.5074958547e+00 -2.6110594125e+00 1.5074958547e+00 2.6110594125e+00 
111000 4.8702887714e+00 6.9840543889e-05 1.5074958547e+00 -2.6110594125e+00 1.5074958547e+00 2.6110594125e+00 
111100 4.8702887716e+00 6.9842813133e-05 1.5074958547e+00 -2.6110594125e+00 1.5074958547e+00 2.6110594125e+00 
111200 4.8702887717e+00 6.9845061301e-05 1.5074958547e+00 -2.6110594125e+00 1.5074958547e+00 2.6110594125e+00 
111300 4.8702887718e+00 6.9847288568e-05 1.5074958547e+00 -2.6110594125e+00 1.5074958547e+00 2.6110594125e+00 
111400 4.8702887719e+00 6.9849495110e-05 1.5074958547e+00 -2.6110594125e+00 1.5074958547e+00 2.6110594125e+00 
111500 4.8702887721e+00 6.9851681104e-05 1.5074958547e+00 -2.6110594125e+00 1.5074958547e+00 2.6110594125e+00 
111600 4.8702887722e+00 6.9853846726e-05 1.5074958547e+00 -2.6110594125e+00 1.5074958547e+00 2.6110594125e+00 
111700 4.8702887723e+00 6.9855992152e-05 1.5074958547e+00 -2.6110594125e+00 1.5074958547e+00 2.6110594125e+00 
111800 4.8702887724e+00 6.9858117559e-05 1.5074958547e+00 -2.6110594125e+00 1.5074958547e+00 2.6110594125e+00 
111900 4.8702887725e+00 6.9860223122e-05 1.5074958547e+00 -2.6110594125e+00 1.5074958547e+00 2.6110594125e+00 
112000 4.8702887727e+00 6.9862309018e-05 1.5074958547e+00 -2.6110594125e+00 1.5074958547e+00 2.6110594125e+00 
112100 4.8702887728e+00 6.9864375423e-05 1.5074958547e+00 -2.6110594125e+00 1.5074958547e+00 2.6110594125e+00 
112200 4.8702887729e+00 6.9866422511e-05 1.5074958547e+00 -2.6110594125e+00 1.5074958547e+00 2.6110594125e+00 
112300 4.8702887730e+00 6.9868450458e-05 1.5074958547e+00 -2.6110594125e+00 1.5074958547e+00 2.6110594125e+00 
112400 4.8702887731e+00 6.9870459440e-05 1.5074958547e+00 -2.6110594125e+00 1.5074958547e+00 2.6110594125e+00 
112500 4.8702887732e+00 6.9872449629e-05 1.5074958547e+00 -2.6110594125e+00 1.5074958547e+00 2.6110594125e+00 
112600 4.8702887733e+00 6.9874421200e-05 1.5074958547e+00 -2.6110594125e+00 1.5074958547e+00 2.6110594125e+00 
112700 4.8702887734e+00 6.9876374326e-05 1.5074958547e+00 -2.6110594125e+00 1.5074958547e+00 2.6110594125e+00 
112800 4.8702887735e+00 6.9878309180e-05 1.5074958547e+00 -2.6110594125e+00 1.5074958547e+00 2.6110594125e+00 
112900 4.8702887736e+00 6.9880225933e-05 1.5074958547e+00 -2.6110594125e+00 1.5074958547e+00 2.6110594125e+00 
113000 4.8702887737e+00 6.9882124757e-05 1.5074958547e+00 -2.6110594125e+00 1.5074958547e+00 2.6110594125e+00 
113100 4.8702887738e+00 6.9884005823e-05 1.5074958547e+00 -2.6110594125e+00 1.5074958547e+00 2.6110594125e+00 
113200 4.8702887739e+00 6.9885869300e-05 1.5074958547e+00 -2.6110594125e+00 1.5074958547e+00 2.6110594125e+00 
113300 4.8702887740e+00 6.9887715358e-05 1.5074958547e+00 -2.6110594125e+00 1.5074958547e+00 2.6110594125e+00 
113400 4.8702887741e+00 6.9889544163e-05 1.5074958547e+00 -2.6110594125e+00 1.5074958547e+00 2.6110594125e+00 
113500 4.8702887742e+00 6.9891355886e-05 1.5074958547e+00 -2.6110594125e+00 1.5074958547e+00 2.6110594125e+00 
113600 4.8702887743e+00 6.9893150690e-05 1.5074958547e+00 -2.6110594125e+00 1.5074958547e+00 2.6110594125e+00 
113700 4.8702887744e+00 6.9894928742e-05 1.5074958547e+00 -2.6110594125e+00 1.5074958547e+00 2.6110594125e+00 
113800 4.8702887745e+00 6.9896690208e-05 1.5074958547e+00 -2.6110594125e+00 1.5074958547e+00 2.6110594125e+00 
113900 4.8702887746e+00 6.9898435249e-05 1.5074958547e+00 -2.6110594125e+00 1.5074958547e+00 2.6110594125e+00 
114000 4.8702887747e+00 6.9900164029e-05 1.5074958547e+00 -2.6110594125e+00 1.5074958547e+00 2.6110594125e+00 
114100 4.8702887748e+00 6.9901876710e-05 1.5074958547e+00 -2.6110594125e+00 1.5074958547e+00 2.6110594125e+00 
114200 4.8702887749e+00 6.9903573452e-05 1.5074958547e+00 -2.6110594125e+00 1.5074958547e+00 2.6110594125e+00 
114300 4.8702887750e+00 6.9905254415e-05 1.5074958547e+00 -2.6110594125e+00 1.5074958547e+00 2.6110594125e+00 
114400 4.8702887751e+00 6.9906919757e-05 1.5074958547e+00 -2.6110594125e+00 1.5074958547e+00 2.6110594125e+00 
114500 4.8702887752e+00 6.9908569635e-05 1.5074958547e+00 -2.6110594125e+00 1.5074958547e+00 2.6110594125e+00 
114600 4.8702887752e+00 6.9910204205e-05 1.5074958547e+00 -2.6110594125e+00 1.5074958547e+00 2.6110594125e+00 
114700 4.8702887753e+00 6.9911823623e-05 1.5074958547e+00 -2.6110594125e+00 1.5074958547e+00 2.6110594125e+00 
114800 4.8702887754e+00 6.9913428042e-05 1.5074958547e+00 -2.6110594125e+00 1.5074958547e+00 2.6110594125e+00 
114900 4.8702887755e+00 6.9915017616e-05 1.5074958547e+00 -2.6110594125e+00 1.5074958547e+00 2.6110594125e+00 
115000 4.8702887756e+00 6.9916592495e-05 1.5074958547e+00 -2.6110594125e+00 1.5074958547e+00 2.6110594125e+00 
115100 4.8702887757e+00 6.9918152831e-05 1.5074958547e+00 -2.6110594125e+00 1.5074958547e+00 2.6110594125e+00 
115200 4.8702887757e+00 6.9919698772e-05 1.5074958547e+00 -2.6110594125e+00 1.5074958547e+00 2.6110594125e+00 
115300 4.8702887758e+00 6.9921230466e-05 1.5074958547e+00 -2.6110594125e+00 1.5074958547e+00 2.6110594125e+00 
115400 4.8702887759e+00 6.9922748060e-05 1.5074958547e+00 -2.6110594125e+00 1.5074958547e+00 2.6110594125e+00 
115500 4.8702887760e+00 6.9924251699e-05 1.5074958547e+00 -2.6110594125e+00 1.5074958547e+00 2.6110594125e+00 
115600 4.8702887761e+00 6.9925741528e-05 1.5074958547e+00 -2.6110594125e+00 1.5074958547e+00 2.6110594125e+00 
115700 4.8702887761e+00 6.9927217689e-05 1.5074958547e+00 -2.6110594125e+00 1.5074958547e+00 2.6110594125e+00 
115800 4.8702887762e+00 6.9928680324e-05 1.5074958547e+00 -2.6110594125e+00 1.5074958547e+00 2.6110594125e+00 
115900 4.8702887763e+00 6.9930129574e-05 1.5074958547e+00 -2.6110594125e+00 1.5074958547e+00 2.6110594125e+00 
116000 4.8702887764e+00 6.9931565578e-05 1.5074958547e+00 -2.6110594125e+00 1.5074958547e+00 2.6110594125e+00 
116100 4.8702887764e+00 6.9932988474e-05 1.5074958547e+00 -2.6110594125e+00 1.5074958547e+00 2.6110594125e+00 
116200 4.8702887765e+00 6.9934398399e-05 1.5074958547e+00 -2.6110594125e+00 1.5074958547e+00 2.6110594125e+00 
116300 4.8702887766e+00 6.9935795487e-05 1.5074958547e+00 -2.6110594125e+00 1.5074958547e+00 2.6110594125e+00 
116400 4.8702887766e+00 6.9937179874e-05 1.5074958547e+00 -2.6110594125e+00 1.5074958547e+00 2.6110594125e+00 
116500 4.8702887767e+00 6.9938551691e-05 1.5074958547e+00 -2.6110594125e+00 1.5074958547e+00 2.6110594125e+00 
116600 4.8702887768e+00 6.9939911070e-05 1.5074958547e+00 -2.6110594125e+00 1.5074958547e+00 2.6110594125e+00 
116700 4.8702887769e+00 6.9941258143e-05 1.5074958547e+00 -2.6110594125e+00 1.5074958547e+00 2.6110594125e+00 
116800 4.8702887769e+00 6.9942593037e-05 1.5074958547e+00 -2.6110594125e+00 1.5074958547e+00 2.6110594125e+00 
116900 4.8702887770e+00 6.9943915881e-05 1.5074958547e+00 -2.6110594125e+00 1.5074958547e+00 2.6110594125e+00 
117000 4.8702887771e+00 6.9945226801e-05 1.5074958547e+00 -2.6110594125e+00 1.5074958547e+00 2.6110594125e+00 
117100 4.8702887771e+00 6.9946525922e-05 1.5074958547e+00 -2.6110594125e+00 1.5074958547e+00 2.6110594125e+00 
117200 4.8702887772e+00 6.9947813367e-05 1.5074958547e+00 -2.6110594125e+00 1.5074958547e+00 2.6110594125e+00 
117300 4.8702887773e+00 6.9949089262e-05 1.5074958547e+00 -2.6110594125e+00 1.5074958547e+00 2.6110594125e+00 
117400 4.8702887773e+00 6.9950353725e-05 1.5074958547e+00 -2.6110594125e+00 1.5074958547e+00 2.6110594125e+00 
117500 4.8702887774e+00 6.9951606877e-05 1.5074958547e+00 -2.6110594125e+00 1.5074958547e+00 2.6110594125e+00 
117600 4.8702887774e+00 6.9952848839e-05 1.5074958547e+00 -2.6110594125e+00 1.5074958547e+00 2.6110594125e+00 
117700 4.8702887775e+00 6.9954079726e-05 1.5074958547e+00 -2.6110594125e+00 1.5074958547e+00 2.6110594125e+00 
117800 4.8702887776e+00 6.9955299656e-05 1.5074958547e+00 -2.6110594125e+00 1.5074958547e+00 2.6110594125e+00 
117900 4.8702887776e+00 6.9956508743e-05 1.5074958547e+00 -2.6110594125e+00 1.5074958547e+00 2.6110594125e+00 
118000 4.8702887777e+00 6.9957707102e-05 1.5074958547e+00 -2.6110594125e+00 1.5074958547e+00 2.6110594125e+00 
118100 4.8702887777e+00 6.9958894846e-05 1.5074958547e+00 -2.6110594125e+00 1.5074958547e+00 2.6110594125e+00 
118200 4.8702887778e+00 6.9960072085e-05 1.5074958547e+00 -2.6110594125e+00 1.5074958547e+00 2.6110594125e+00 
118300 4.8702887779e+00 6.9961238931e-05 1.5074958547e+00 -2.6110594125e+00 1.5074958547e+00 2.6110594125e+00 
118400 4.8702887779e+00 6.9962395492e-05 1.5074958547e+00 -2.6110594125e+00 1.5074958547e+00 2.6110594125e+00 
118500 4.8702887780e+00 6.9963541877e-05 1.5074958547e+00 -2.6110594125e+00 1.5074958547e+00 2.6110594125e+00 
118600 4.8702887780e+00 6.9964678192e-05 1.5074958547e+00 -2.6110594125e+00 1.5074958547e+00 2.6110594125e+00 
118700 4.8702887781e+00 6.9965804543e-05 1.5074958547e+00 -2.6110594125e+00 1.5074958547e+00 2.6110594125e+00 
118800 4.8702887781e+00 6.9966921034e-05 1.5074958547e+00 -2.6110594125e+00 1.5074958547e+00 2.6110594125e+00 
118900 4.8702887782e+00 6.9968027769e-05 1.5074958547e+00 -2.6110594125e+00 1.5074958547e+00 2.6110594125e+00 
119000 4.8702887782e+00 6.9969124849e-05 1.5074958547e+00 -2.6110594125e+00 1.5074958547e+00 2.6110594125e+00 
119100 4.8702887783e+00 6.9970212376e-05 1.5074958547e+00 -2.6110594125e+00 1.5074958547e+00 2.6110594125e+00 
119200 4.8702887783e+00 6.9971290449e-05 1.5074958547e+00 -2.6110594125e+00 1.5074958547e+00 2.6110594125e+00 
119300 4.8702887784e+00 6.9972359167e-05 1.5074958547e+00 -2.6110594125e+00 1.5074958547e+00 2.6110594125e+00 
119400 4.8702887784e+00 6.9973418628e-05 1.5074958547e+00 -2.6110594125e+00 1.5074958547e+00 2.6110594125e+00 
119500 4.8702887785e+00 6.9974468928e-05 1.5074958547e+00 -2.6110594125e+00 1.5074958547e+00 2.6110594125e+00 
119600 4.8702887785e+00 6.9975011496e-05 1.5074958547e+00 -2.6110594125e+00 1.5074958547e+00 2.6110594125e+00 
119600 4.8702887785e+00 6.9975011496e-05 1.5074958547e+00 -2.6110594125e+00 1.5074958547e+00 2.6110594125e+00 
