# step Hamiltonian StressXX CellTensor1 CellTensor2 CellTensor3 CellTensor4 
0 7.1098017251e+00 3.6034415879e-02 1.6185780433e+00 -2.8034594071e+00 1.6185780433e+00 2.8034594071e+00 
100 7.0967136288e+00 3.9717093227e-02 1.6185780433e+00 -2.8034594071e+00 1.6185780433e+00 2.8034594071e+00 
200 7.0835628506e+00 4.1769040559e-02 1.6173512853e+00 -2.8013345999e+00 1.6173512853e+00 2.8013345999e+00 
300 7.0704356315e+00 4.3402175501e-02 1.6160601781e+00 -2.7990983366e+00 1.6160601781e+00 2.7990983366e+00 
400 7.0573637282e+00 4.4642161282e-02 1.6147175252e+00 -2.7967727934e+00 1.6147175252e+00 2.7967727934e+00 
500 7.0443764489e+00 4.5513852715e-02 1.6133353705e+00 -2.7943788314e+00 1.6133353705e+00 2.7943788314e+00 
600 7.0315007458e+00 4.6041332739e-02 1.6119250247e+00 -2.7919360408e+00 1.6119250247e+00 2.7919360408e+00 
700 7.0187613034e+00 4.6247937826e-02 1.6104970883e+00 -2.7894627825e+00 1.6104970883e+00 2.7894627825e+00 
800 7.0061806240e+00 4.6156273645e-02 1.6090614738e+00 -2.7869762252e+00 1.6090614738e+00 2.7869762252e+00 
900 6.9937791097e+00 4.5788222475e-02 1.6076274264e+00 -2.7844923821e+00 1.6076274264e+00 2.7844923821e+00 
1000 6.9815751437e+00 4.5164943916e-02 1.6062035437e+00 -2.7820261450e+00 1.6062035437e+00 2.7820261450e+00 
1100 6.9695851693e+00 4.4306870443e-02 1.6047977957e+00 -2.7795913180e+00 1.6047977957e+00 2.7795913180e+00 
1200 6.9578237695e+00 4.3233699258e-02 1.6034175435e+00 -2.7772006511e+00 1.6034175435e+00 2.7772006511e+00 
1300 6.9463037447e+00 4.1964381826e-02 1.6020695592e+00 -2.7748658737e+00 1.6020695592e+00 2.7748658737e+00 
1400 6.9350361920e+00 4.0517112349e-02 1.6007600449e+00 -2.7725977284e+00 1.6007600449e+00 2.7725977284e+00 
1500 6.9240305838e+00 3.8909316293e-02 1.5994946532e+00 -2.7704060057e+00 1.5994946532e+00 2.7704060057e+00 
1600 6.9132948464e+00 3.7157639928e-02 1.5982785071e+00 -2.7682995790e+00 1.5982785071e+00 2.7682995790e+00 
1700 6.9028354399e+00 3.5277941683e-02 1.5971162212e+00 -2.7662864407e+00 1.5971162212e+00 2.7662864407e+00 
1800 6.8926574372e+00 3.3285285970e-02 1.5960119223e+00 -2.7643737390e+00 1.5960119223e+00 2.7643737390e+00 
1900 6.8827646032e+00 3.1193939956e-02 1.5949692716e+00 -2.7625678150e+00 1.5949692716e+00 2.7625678150e+00 
2000 6.8731594746e+00 2.9017373651e-02 1.5939914863e+00 -2.7608742411e+00 1.5939914863e+00 2.7608742411e+00 
2100 6.8638434380e+00 2.6768263501e-02 1.5930813619e+00 -2.7592978595e+00 1.5930813619e+00 2.7592978595e+00 
2200 6.8548168086e+00 2.4458499601e-02 1.5922412947e+00 -2.7578428203e+00 1.5922412947e+00 2.7578428203e+00 
2300 6.8460789069e+00 2.2099196498e-02 1.5914733039e+00 -2.7565126213e+00 1.5914733039e+00 2.7565126213e+00 
2400 6.8376281349e+00 1.9700707469e-02 1.5907790545e+00 -2.7553101460e+00 1.5907790545e+00 2.7553101460e+00 
2500 6.8294620509e+00 1.7272642110e-02 1.5901598790e+00 -2.7542377025e+00 1.5901598790e+00 2.7542377025e+00 
2600 6.8215774418e+00 1.4823886963e-02 1.5896167997e+00 -2.7532970616e+00 1.5896167997e+00 2.7532970616e+00 
2700 6.8139703948e+00 1.2362628896e-02 1.5891505501e+00 -2.7524894937e+00 1.5891505501e+00 2.7524894937e+00 
2800 6.8066363655e+00 9.8963809001e-03 1.5887615963e+00 -2.7518158059e+00 1.5887615963e+00 2.7518158059e+00 
2900 6.7995702451e+00 7.4320099482e-03 1.5884501569e+00 -2.7512763771e+00 1.5884501569e+00 2.7512763771e+00 
3000 6.7927664241e+00 4.9757665524e-03 1.5882162236e+00 -2.7508711927e+00 1.5882162236e+00 2.7508711927e+00 
3100 6.7862188541e+00 2.5333156455e-03 1.5880595798e+00 -2.7505998777e+00 1.5880595798e+00 2.7505998777e+00 
3200 6.7799211068e+00 1.0976843075e-04 1.5879798191e+00 -2.7504617281e+00 1.5879798191e+00 2.7504617281e+00 
3300 6.7738664295e+00 -2.2902851509e-03 1.5879763629e+00 -2.7504557418e+00 1.5879763629e+00 2.7504557418e+00 
3400 6.7680477992e+00 -4.6627436632e-03 1.5880484768e+00 -2.7505806467e+00 1.5880484768e+00 2.7505806467e+00 
3500 6.7624579722e+00 -7.0039614329e-03 1.5881952864e+00 -2.7508349284e+00 1.5881952864e+00 2.7508349284e+00 
3600 6.7570895323e+00 -9.3107161016e-03 1.5884157921e+00 -2.7512168555e+00 1.5884157921e+00 2.7512168555e+00 
3700 6.7519349351e+00 -1.1580176722e-02 1.5887088830e+00 -2.7517245037e+00 1.5887088830e+00 2.7517245037e+00 
3800 6.7469865497e+00 -1.3809872615e-02 1.5890733493e+00 -2.7523557780e+00 1.5890733493e+00 2.7523557780e+00 
3900 6.7422366980e+00 -1.5997663186e-02 1.5895078951e+00 -2.7531084334e+00 1.5895078951e+00 2.7531084334e+00 
4000 6.7376776905e+00 -1.8141708846e-02 1.5900111486e+00 -2.7539800939e+00 1.5900111486e+00 2.7539800939e+00 
4100 6.7333018598e+00 -2.0240443181e-02 1.5905816727e+00 -2.7549682706e+00 1.5905816727e+00 2.7549682706e+00 
4200 6.7291015913e+00 -2.2292546474e-02 1.5912179742e+00 -2.7560703773e+00 1.5912179742e+00 2.7560703773e+00 
4300 6.7250693515e+00 -2.4296920641e-02 1.5919185125e+00 -2.7572837451e+00 1.5919185125e+00 2.7572837451e+00 
4400 6.7211977134e+00 -2.6252665660e-02 1.5926817067e+00 -2.7586056363e+00 1.5926817067e+00 2.7586056363e+00 
4500 6.7174793796e+00 -2.8159057501e-02 1.5935059432e+00 -2.7600332559e+00 1.5935059432e+00 2.7600332559e+00 
4600 6.7139072030e+00 -3.0015527590e-02 1.5943895816e+00 -2.7615637623e+00 1.5943895816e+00 2.7615637623e+00 
4700 6.7104742058e+00 -3.1821643794e-02 1.5953309600e+00 -2.7631942776e+00 1.5953309600e+00 2.7631942776e+00 
4800 6.7071735950e+00 -3.3577092903e-02 1.5963284006e+00 -2.7649218954e+00 1.5963284006e+00 2.7649218954e+00 
4900 6.7039987776e+00 -3.5281664594e-02 1.5973802135e+00 -2.7667436889e+00 1.5973802135e+00 2.7667436889e+00 
5000 6.7009433718e+00 -3.6935236818e-02 1.5984847010e+00 -2.7686567172e+00 1.5984847010e+00 2.7686567172e+00 
5100 6.6980012183e+00 -3.8537762568e-02 1.5996401603e+00 -2.7706580315e+00 1.5996401603e+00 2.7706580315e+00 
5200 6.6951663885e+00 -4.0089257975e-02 1.6008448874e+00 -2.7727446800e+00 1.6008448874e+00 2.7727446800e+00 
5300 6.6924331912e+00 -4.1589791650e-02 1.6020971786e+00 -2.7749137120e+00 1.6020971786e+00 2.7749137120e+00 
5400 6.6897961782e+00 -4.3039475231e-02 1.6033953334e+00 -2.7771621821e+00 1.6033953334e+00 2.7771621821e+00 
5500 6.6872501481e+00 -4.4438455043e-02 1.6047376560e+00 -2.7794871530e+00 1.6047376560e+00 2.7794871530e+00 
5600 6.6847901482e+00 -4.5786904817e-02 1.6061224568e+00 -2.7818856983e+00 1.6061224568e+00 2.7818856983e+00 
5700 6.6824114765e+00 -4.7085019375e-02 1.6075480539e+00 -2.7843549050e+00 1.6075480539e+00 2.7843549050e+00 
5800 6.6801096806e+00 -4.8333009241e-02 1.6090127741e+00 -2.7868918748e+00 1.6090127741e+00 2.7868918748e+00 
5900 6.6778805570e+00 -4.9531096076e-02 1.6105149537e+00 -2.7894937261e+00 1.6105149537e+00 2.7894937261e+00 
6000 6.6757201486e+00 -5.0679508886e-02 1.6120529391e+00 -2.7921575950e+00 1.6120529391e+00 2.7921575950e+00 
6100 6.6736247416e+00 -5.1778480935e-02 1.6136250877e+00 -2.7948806363e+00 1.6136250877e+00 2.7948806363e+00 
6200 6.6715908609e+00 -5.2828247296e-02 1.6152297682e+00 -2.7976600244e+00 1.6152297682e+00 2.7976600244e+00 
6300 6.6696152659e+00 -5.3829042980e-02 1.6168653607e+00 -2.8004929537e+00 1.6168653607e+00 2.8004929537e+00 
6400 6.6676949439e+00 -5.4781101581e-02 1.6185302572e+00 -2.8033766390e+00 1.6185302572e+00 2.8033766390e+00 
6500 6.6658271048e+00 -5.5684654387e-02 1.6202228619e+00 -2.8063083163e+00 1.6202228619e+00 2.8063083163e+00 
6600 6.6640091733e+00 -5.6539929911e-02 1.6219415911e+00 -2.8092852426e+00 1.6219415911e+00 2.8092852426e+00 
6700 6.6622387821e+00 -5.7347153772e-02 1.6236848735e+00 -2.8123046964e+00 1.6236848735e+00 2.8123046964e+00 
6800 6.6605137640e+00 -5.8106548904e-02 1.6254511503e+00 -2.8153639775e+00 1.6254511503e+00 2.8153639775e+00 
6900 6.6588321435e+00 -5.8818336040e-02 1.6272388751e+00 -2.8184604077e+00 1.6272388751e+00 2.8184604077e+00 
7000 6.6571921283e+00 -5.9482734431e-02 1.6290465142e+00 -2.8215913304e+00 1.6290465142e+00 2.8215913304e+00 
7100 6.6555921010e+00 -6.0099962766e-02 1.6308725465e+00 -2.8247541112e+00 1.6308725465e+00 2.8247541112e+00 
7200 6.6540306094e+00 -6.0670240261e-02 1.6327154639e+00 -2.8279461377e+00 1.6327154639e+00 2.8279461377e+00 
7300 6.6525063581e+00 -6.1193787883e-02 1.6345737709e+00 -2.8311648200e+00 1.6345737709e+00 2.8311648200e+00 
7400 6.6510181988e+00 -6.1670829685e-02 1.6364459854e+00 -2.8344075906e+00 1.6364459854e+00 2.8344075906e+00 
7500 6.6495651214e+00 -6.2101594229e-02 1.6383306383e+00 -2.8376719051e+00 1.6383306383e+00 2.8376719051e+00 
7600 6.6481462443e+00 -6.2486316057e-02 1.6402262738e+00 -2.8409552420e+00 1.6402262738e+00 2.8409552420e+00 
7700 6.6467608056e+00 -6.2825237222e-02 1.6421314498e+00 -2.8442551038e+00 1.6421314498e+00 2.8442551038e+00 
7800 6.6454081538e+00 -6.3118608819e-02 1.6440447382e+00 -2.8475690165e+00 1.6440447382e+00 2.8475690165e+00 
7900 6.6440877385e+00 -6.3366692540e-02 1.6459647248e+00 -2.8508945308e+00 1.6459647248e+00 2.8508945308e+00 
8000 6.6427991019e+00 -6.3569762205e-02 1.6478900099e+00 -2.8542292225e+00 1.6478900099e+00 2.8542292225e+00 
8100 6.6415418697e+00 -6.3728105281e-02 1.6498192088e+00 -2.8575706929e+00 1.6498192088e+00 2.8575706929e+00 
8200 6.6403157425e+00 -6.3842024351e-02 1.6517509515e+00 -2.8609165694e+00 1.6517509515e+00 2.8609165694e+00 
8300 6.6391204879e+00 -6.3911838558e-02 1.6536838839e+00 -2.8642645065e+00 1.6536838839e+00 2.8642645065e+00 
8400 6.6379559317e+00 -6.3937884974e-02 1.6556166678e+00 -2.8676121864e+00 1.6556166678e+00 2.8676121864e+00 
8500 6.6368219508e+00 -6.3920519920e-02 1.6575479813e+00 -2.8709573197e+00 1.6575479813e+00 2.8709573197e+00 
8600 6.6357184651e+00 -6.3860120213e-02 1.6594765197e+00 -2.8742976462e+00 1.6594765197e+00 2.8742976462e+00 
8700 6.6346454305e+00 -6.3757084338e-02 1.6614009955e+00 -2.8776309359e+00 1.6614009955e+00 2.8776309359e+00 
8800 6.6336028317e+00 -6.3611833542e-02 1.6633201391e+00 -2.8809549902e+00 1.6633201391e+00 2.8809549902e+00 
8900 6.6325906759e+00 -6.3424812840e-02 1.6652326996e+00 -2.8842676421e+00 1.6652326996e+00 2.8842676421e+00 
9000 6.6316089863e+00 -6.3196491944e-02 1.6671374451e+00 -2.8875667580e+00 1.6671374451e+00 2.8875667580e+00 
9100 6.6306577959e+00 -6.2927366090e-02 1.6690331632e+00 -2.8908502381e+00 1.6690331632e+00 2.8908502381e+00 
9200 6.6297371426e+00 -6.2617956787e-02 1.6709186619e+00 -2.8941160177e+00 1.6709186619e+00 2.8941160177e+00 
9300 6.6288470631e+00 -6.2268812462e-02 1.6727927701e+00 -2.8973620683e+00 1.6727927701e+00 2.8973620683e+00 
9400 6.6279875884e+00 -6.1880509022e-02 1.6746543380e+00 -2.9005863985e+00 1.6746543380e+00 2.9005863985e+00 
9500 6.6271587393e+00 -6.1453650314e-02 1.6765022380e+00 -2.9037870552e+00 1.6765022380e+00 2.9037870552e+00 
9600 6.6263605222e+00 -6.0988868498e-02 1.6783353651e+00 -2.9069621246e+00 1.6783353651e+00 2.9069621246e+00 
9700 6.6255929250e+00 -6.0486824320e-02 1.6801526378e+00 -2.9101097332e+00 1.6801526378e+00 2.9101097332e+00 
9800 6.6248559137e+00 -5.9948207300e-02 1.6819529985e+00 -2.9132280493e+00 1.6819529985e+00 2.9132280493e+00 
9900 6.6241494295e+00 -5.9373735822e-02 1.6837354140e+00 -2.9163152835e+00 1.6837354140e+00 2.9163152835e+00 
10000 6.6234733859e+00 -5.8764157135e-02 1.6854988765e+00 -2.9193696903e+00 1.6854988765e+00 2.9193696903e+00 
10100 6.6228276660e+00 -5.8120247271e-02 1.6872424041e+00 -2.9223895687e+00 1.6872424041e+00 2.9223895687e+00 
10200 6.6222121206e+00 -5.7442810864e-02 1.6889650412e+00 -2.9253732636e+00 1.6889650412e+00 2.9253732636e+00 
10300 6.6216265663e+00 -5.6732680894e-02 1.6906658591e+00 -2.9283191666e+00 1.6906658591e+00 2.9283191666e+00 
10400 6.6210707843e+00 -5.5990718342e-02 1.6923439570e+00 -2.9312257174e+00 1.6923439570e+00 2.9312257174e+00 
10500 6.6205445188e+00 -5.5217811761e-02 1.6939984620e+00 -2.9340914041e+00 1.6939984620e+00 2.9340914041e+00 
10600 6.6200474764e+00 -5.4414876775e-02 1.6956285301e+00 -2.9369147649e+00 1.6956285301e+00 2.9369147649e+00 
10700 6.6195793254e+00 -5.3582855494e-02 1.6972333465e+00 -2.9396943885e+00 1.6972333465e+00 2.9396943885e+00 
10800 6.6191396955e+00 -5.2722715852e-02 1.6988121263e+00 -2.9424289153e+00 1.6988121263e+00 2.9424289153e+00 
10900 6.6187281778e+00 -5.1835450881e-02 1.7003641147e+00 -2.9451170381e+00 1.7003641147e+00 2.9451170381e+00 
11000 6.6183443250e+00 -5.0922077903e-02 1.7018885879e+00 -2.9477575030e+00 1.7018885879e+00 2.9477575030e+00 
11100 6.6179876519e+00 -4.9983637665e-02 1.7033848530e+00 -2.9503491103e+00 1.7033848530e+00 2.9503491103e+00 
11200 6.6176576358e+00 -4.9021193397e-02 1.7048522492e+00 -2.9528907150e+00 1.7048522492e+00 2.9528907150e+00 
11300 6.6173537178e+00 -4.8035829818e-02 1.7062901473e+00 -2.9553812276e+00 1.7062901473e+00 2.9553812276e+00 
11400 6.6170753034e+00 -4.7028652071e-02 1.7076979509e+00 -2.9578196150e+00 1.7076979509e+00 2.9578196150e+00 
11500 6.6168217644e+00 -4.6000784606e-02 1.7090750963e+00 -2.9602049008e+00 1.7090750963e+00 2.9602049008e+00 
11600 6.6165924398e+00 -4.4953370007e-02 1.7104210529e+00 -2.9625361659e+00 1.7104210529e+00 2.9625361659e+00 
11700 6.6163866376e+00 -4.3887567760e-02 1.7117353235e+00 -2.9648125494e+00 1.7117353235e+00 2.9648125494e+00 
11800 6.6162036367e+00 -4.2804552980e-02 1.7130174446e+00 -2.9670332484e+00 1.7130174446e+00 2.9670332484e+00 
11900 6.6160426886e+00 -4.1705515079e-02 1.7142669869e+00 -2.9691975190e+00 1.7142669869e+00 2.9691975190e+00 
12000 6.6159030195e+00 -4.0591656399e-02 1.7154835548e+00 -2.9713046764e+00 1.7154835548e+00 2.9713046764e+00 
12100 6.6157838325e+00 -3.9464190793e-02 1.7166667873e+00 -2.9733540952e+00 1.7166667873e+00 2.9733540952e+00 
12200 6.6156843096e+00 -3.8324342174e-02 1.7178163578e+00 -2.9753452099e+00 1.7178163578e+00 2.9753452099e+00 
12300 6.6156036144e+00 -3.7173343022e-02 1.7189319744e+00 -2.9772775144e+00 1.7189319744e+00 2.9772775144e+00 
12400 6.6155408938e+00 -3.6012432857e-02 1.7200133795e+00 -2.9791505631e+00 1.7200133795e+00 2.9791505631e+00 
12500 6.6154952812e+00 -3.4842856682e-02 1.7210603506e+00 -2.9809639701e+00 1.7210603506e+00 2.9809639701e+00 
12600 6.6154658983e+00 -3.3665863396e-02 1.7220726995e+00 -2.9827174098e+00 1.7220726995e+00 2.9827174098e+00 
12700 6.6154518580e+00 -3.2482704181e-02 1.7230502728e+00 -2.9844106164e+00 1.7230502728e+00 2.9844106164e+00 
12800 6.6154522666e+00 -3.1294630866e-02 1.7239929517e+00 -2.9860433843e+00 1.7239929517e+00 2.9860433843e+00 
12900 6.6154662267e+00 -3.0102894277e-02 1.7249006519e+00 -2.9876155672e+00 1.7249006519e+00 2.9876155672e+00 
13000 6.6154928393e+00 -2.8908742557e-02 1.7257733234e+00 -2.9891270784e+00 1.7257733234e+00 2.9891270784e+00 
13100 6.6155312064e+00 -2.7713419491e-02 1.7266109502e+00 -2.9905778906e+00 1.7266109502e+00 2.9905778906e+00 
13200 6.6155804338e+00 -2.6518162801e-02 1.7274135504e+00 -2.9919680349e+00 1.7274135504e+00 2.9919680349e+00 
13300 6.6156396328e+00 -2.5324202453e-02 1.7281811756e+00 -2.9932976009e+00 1.7281811756e+00 2.9932976009e+00 
13400 6.6157079233e+00 -2.4132758948e-02 1.7289139111e+00 -2.9945667359e+00 1.7289139111e+00 2.9945667359e+00 
13500 6.6157844356e+00 -2.2945041619e-02 1.7296118747e+00 -2.9957756444e+00 1.7296118747e+00 2.9957756444e+00 
13600 6.6158683131e+00 -2.1762246929e-02 1.7302752174e+00 -2.9969245876e+00 1.7302752174e+00 2.9969245876e+00 
13700 6.6159587138e+00 -2.0585556781e-02 1.7309041221e+00 -2.9980138825e+00 1.7309041221e+00 2.9980138825e+00 
13800 6.6160548132e+00 -1.9416136836e-02 1.7314988037e+00 -2.9990439012e+00 1.7314988037e+00 2.9990439012e+00 
13900 6.6161558055e+00 -1.8255134846e-02 1.7320595082e+00 -3.0000150699e+00 1.7320595082e+00 3.0000150699e+00 
14000 6.6162609062e+00 -1.7103679006e-02 1.7325865126e+00 -3.0009278684e+00 1.7325865126e+00 3.0009278684e+00 
14100 6.6163693532e+00 -1.5962876337e-02 1.7330801241e+00 -3.0017828285e+00 1.7330801241e+00 3.0017828285e+00 
14200 6.6164804093e+00 -1.4833811081e-02 1.7335406793e+00 -3.0025805336e+00 1.7335406793e+00 3.0025805336e+00 
14300 6.6165933630e+00 -1.3717543142e-02 1.7339685441e+00 -3.0033216172e+00 1.7339685441e+00 3.0033216172e+00 
14400 6.6167075302e+00 -1.2615106552e-02 1.7343641126e+00 -3.0040067618e+00 1.7343641126e+00 3.0040067618e+00 
14500 6.6168222557e+00 -1.1527507984e-02 1.7347278063e+00 -3.0046366978e+00 1.7347278063e+00 3.0046366978e+00 
14600 6.6169369145e+00 -1.0455725300e-02 1.7350600739e+00 -3.0052122021e+00 1.7350600739e+00 3.0052122021e+00 
14700 6.6170509123e+00 -9.4007061565e-03 1.7353613899e+00 -3.0057340968e+00 1.7353613899e+00 3.0057340968e+00 
14800 6.6171636870e+00 -8.3633666497e-03 1.7356322542e+00 -3.0062032476e+00 1.7356322542e+00 3.0062032476e+00 
14900 6.6172747092e+00 -7.3445900263e-03 1.7358731912e+00 -3.0066205627e+00 1.7358731912e+00 3.0066205627e+00 
15000 6.6173834831e+00 -6.3452254475e-03 1.7360847487e+00 -3.0069869910e+00 1.7360847487e+00 3.0069869910e+00 
15100 6.6174895467e+00 -5.3660868181e-03 1.7362674972e+00 -3.0073035207e+00 1.7362674972e+00 3.0073035207e+00 
15200 6.6175924728e+00 -4.4079516809e-03 1.7364220289e+00 -3.0075711774e+00 1.7364220289e+00 3.0075711774e+00 
15300 6.6176918685e+00 -3.4715601825e-03 1.7365489567e+00 -3.0077910228e+00 1.7365489567e+00 3.0077910228e+00 
15400 6.6177873759e+00 -2.5576141116e-03 1.7366489134e+00 -3.0079641529e+00 1.7366489134e+00 3.0079641529e+00 
15500 6.6178786720e+00 -1.6667760139e-03 1.7367225504e+00 -3.0080916959e+00 1.7367225504e+00 3.0080916959e+00 
15600 6.6179654685e+00 -7.9966838742e-04 1.7367705368e+00 -3.0081748109e+00 1.7367705368e+00 3.0081748109e+00 
15700 6.6180475116e+00 4.3127041209e-05 1.7367935586e+00 -3.0082146857e+00 1.7367935586e+00 3.0082146857e+00 
15800 6.6181245840e+00 8.6265672165e-04 1.7367935586e+00 -3.0082146857e+00 1.7367935586e+00 3.0082146857e+00 
15900 6.6181964970e+00 1.6552032180e-03 1.7367687239e+00 -3.0081716708e+00 1.7367687239e+00 3.0081716708e+00 
16000 6.6182630977e+00 2.4219446741e-03 1.7367210723e+00 -3.0080891358e+00 1.7367210723e+00 3.0080891358e+00 
16100 6.6183242656e+00 3.1624678365e-03 1.7366513453e+00 -3.0079683650e+00 1.7366513453e+00 3.0079683650e+00 
16200 6.6183799117e+00 3.8764025314e-03 1.7365602953e+00 -3.0078106619e+00 1.7365602953e+00 3.0078106619e+00 
16300 6.6184299775e+00 4.5634218499e-03 1.7364486850e+00 -3.0076173472e+00 1.7364486850e+00 3.0076173472e+00 
16400 6.6184744344e+00 5.2232422403e-03 1.7363172857e+00 -3.0073897568e+00 1.7363172857e+00 3.0073897568e+00 
16500 6.6185132824e+00 5.8556235052e-03 1.7361668763e+00 -3.0071292402e+00 1.7361668763e+00 3.0071292402e+00 
16600 6.6185465488e+00 6.4603687051e-03 1.7359982425e+00 -3.0068371579e+00 1.7359982425e+00 3.0068371579e+00 
16700 6.6185742873e+00 7.0373239672e-03 1.7358121751e+00 -3.0065148797e+00 1.7358121751e+00 3.0065148797e+00 
16800 6.6185965765e+00 7.5863782015e-03 1.7356094692e+00 -3.0061637828e+00 1.7356094692e+00 3.0061637828e+00 
16900 6.6186135186e+00 8.1074627249e-03 1.7353909230e+00 -3.0057852496e+00 1.7353909230e+00 3.0057852496e+00 
17000 6.6186252380e+00 8.6005507935e-03 1.7351573364e+00 -3.0053806658e+00 1.7351573364e+00 3.0053806658e+00 
17100 6.6186318798e+00 9.0656570470e-03 1.7349095103e+00 -3.0049514183e+00 1.7349095103e+00 3.0049514183e+00 
17200 6.6186336084e+00 9.5028368651e-03 1.7346482451e+00 -3.0044988937e+00 1.7346482451e+00 3.0044988937e+00 
17300 6.6186306061e+00 9.9121856405e-03 1.7343743398e+00 -3.0040244759e+00 1.7343743398e+00 3.0040244759e+00 
17400 6.6186230713e+00 1.0293837969e-02 1.7340885908e+00 -3.0035295441e+00 1.7340885908e+00 3.0035295441e+00 
17500 6.6186112171e+00 1.0647966762e-02 1.7337917910e+00 -3.0030154717e+00 1.7337917910e+00 3.0030154717e+00 
17600 6.6185952700e+00 1.0974782284e-02 1.7334847284e+00 -3.0024836237e+00 1.7334847284e+00 3.0024836237e+00 
17700 6.6185754677e+00 1.1274531115e-02 1.7331681854e+00 -3.0019353552e+00 1.7331681854e+00 3.0019353552e+00 
17800 6.6185520584e+00 1.1547495053e-02 1.7328429377e+00 -3.0013720097e+00 1.7328429377e+00 3.0013720097e+00 
17900 6.6185252984e+00 1.1793989945e-02 1.7325097533e+00 -3.0007949174e+00 1.7325097533e+00 3.0007949174e+00 
18000 6.6184954513e+00 1.2014364461e-02 1.7321693915e+00 -3.0002053934e+00 1.7321693915e+00 3.0002053934e+00 
18100 6.6184627861e+00 1.2208998818e-02 1.7318226020e+00 -2.9996047363e+00 1.7318226020e+00 2.9996047363e+00 
18200 6.6184275759e+00 1.2378303450e-02 1.7314701241e+00 -2.9989942267e+00 1.7314701241e+00 2.9989942267e+00 
18300 6.6183900964e+00 1.2522717630e-02 1.7311126857e+00 -2.9983751252e+00 1.7311126857e+00 2.9983751252e+00 
18400 6.6183506246e+00 1.2642708062e-02 1.7307510027e+00 -2.9977486719e+00 1.7307510027e+00 2.9977486719e+00 
18500 6.6183094375e+00 1.2738767429e-02 1.7303857779e+00 -2.9971160840e+00 1.7303857779e+00 2.9971160840e+00 
18600 6.6182668106e+00 1.2811412912e-02 1.7300177005e+00 -2.9964785553e+00 1.7300177005e+00 2.9964785553e+00 
18700 6.6182230168e+00 1.2861184691e-02 1.7296474455e+00 -2.9958372548e+00 1.7296474455e+00 2.9958372548e+00 
18800 6.6181783254e+00 1.2888644418e-02 1.7292756725e+00 -2.9951933251e+00 1.7292756725e+00 2.9951933251e+00 
18900 6.6181330007e+00 1.2894373684e-02 1.7289030257e+00 -2.9945478819e+00 1.7289030257e+00 2.9945478819e+00 
19000 6.6180873012e+00 1.2878972467e-02 1.7285301329e+00 -2.9939020126e+00 1.7285301329e+00 2.9939020126e+00 
19100 6.6180414783e+00 1.2843057584e-02 1.7281576051e+00 -2.9932567755e+00 1.7281576051e+00 2.9932567755e+00 
19200 6.6179957759e+00 1.2787261138e-02 1.7277860361e+00 -2.9926131991e+00 1.7277860361e+00 2.9926131991e+00 
19300 6.6179504290e+00 1.2712228975e-02 1.7274160017e+00 -2.9919722807e+00 1.7274160017e+00 2.9919722807e+00 
19400 6.6179056633e+00 1.2618619143e-02 1.7270480597e+00 -2.9913349865e+00 1.7270480597e+00 2.9913349865e+00 
19500 6.6178616945e+00 1.2507100374e-02 1.7266827493e+00 -2.9907022503e+00 1.7266827493e+00 2.9907022503e+00 
19600 6.6178187273e+00 1.2378350577e-02 1.7263205906e+00 -2.9900749730e+00 1.7263205906e+00 2.9900749730e+00 
19700 6.6177769555e+00 1.2233055357e-02 1.7259620847e+00 -2.9894540226e+00 1.7259620847e+00 2.9894540226e+00 
19800 6.6177365608e+00 1.2071906560e-02 1.7256077131e+00 -2.9888402331e+00 1.7256077131e+00 2.9888402331e+00 
19900 6.6176977129e+00 1.1895600846e-02 1.7252579379e+00 -2.9882344045e+00 1.7252579379e+00 2.9882344045e+00 
20000 6.6176605692e+00 1.1704838292e-02 1.7249132009e+00 -2.9876373025e+00 1.7249132009e+00 2.9876373025e+00 
20100 6.6176252740e+00 1.1500321040e-02 1.7245739242e+00 -2.9870496582e+00 1.7245739242e+00 2.9870496582e+00 
20200 6.6175919590e+00 1.1282751975e-02 1.7242405100e+00 -2.9864721678e+00 1.7242405100e+00 2.9864721678e+00 
20300 6.6175607427e+00 1.1052833447e-02 1.7239133400e+00 -2.9859054927e+00 1.7239133400e+00 2.9859054927e+00 
20400 6.6175317303e+00 1.0811266036e-02 1.7235927760e+00 -2.9853502596e+00 1.7235927760e+00 2.9853502596e+00 
20500 6.6175050142e+00 1.0558747366e-02 1.7232791596e+00 -2.9848070601e+00 1.7232791596e+00 2.9848070601e+00 
20600 6.6174806736e+00 1.0295970960e-02 1.7229728125e+00 -2.9842764512e+00 1.7229728125e+00 2.9842764512e+00 
20700 6.6174587746e+00 1.0023625152e-02 1.7226740360e+00 -2.9837589553e+00 1.7226740360e+00 2.9837589553e+00 
20800 6.6174393708e+00 9.7423920387e-03 1.7223831121e+00 -2.9832550602e+00 1.7223831121e+00 2.9832550602e+00 
20900 6.6174225031e+00 9.4529464906e-03 1.7221003026e+00 -2.9827652198e+00 1.7221003026e+00 2.9827652198e+00 
21000 6.6174082001e+00 9.1559552125e-03 1.7218258501e+00 -2.9822898541e+00 1.7218258501e+00 2.9822898541e+00 
21100 6.6173964784e+00 8.8520758551e-03 1.7215599777e+00 -2.9818293496e+00 1.7215599777e+00 2.9818293496e+00 
21200 6.6173873432e+00 8.5419561798e-03 1.7213028895e+00 -2.9813840598e+00 1.7213028895e+00 2.9813840598e+00 
21300 6.6173807882e+00 8.2262332764e-03 1.7210547707e+00 -2.9809543054e+00 1.7210547707e+00 2.9809543054e+00 
21400 6.6173767966e+00 7.9055328335e-03 1.7208157881e+00 -2.9805403754e+00 1.7208157881e+00 2.9805403754e+00 
21500 6.6173753410e+00 7.5804684606e-03 1.7205860902e+00 -2.9801425269e+00 1.7205860902e+00 2.9801425269e+00 
21600 6.6173763845e+00 7.2516410624e-03 1.7203658075e+00 -2.9797609861e+00 1.7203658075e+00 2.9797609861e+00 
21700 6.6173798804e+00 6.9196382642e-03 1.7201550531e+00 -2.9793959488e+00 1.7201550531e+00 2.9793959488e+00 
21800 6.6173857738e+00 6.5850338874e-03 1.7199539228e+00 -2.9790475810e+00 1.7199539228e+00 2.9790475810e+00 
21900 6.6173940010e+00 6.2483874748e-03 1.7197624959e+00 -2.9787160198e+00 1.7197624959e+00 2.9787160198e+00 
22000 6.6174044910e+00 5.9102438637e-03 1.7195808348e+00 -2.9784013736e+00 1.7195808348e+00 2.9784013736e+00 
22100 6.6174171656e+00 5.5711328068e-03 1.7194089864e+00 -2.9781037234e+00 1.7194089864e+00 2.9781037234e+00 
22200 6.6174319401e+00 5.2315686383e-03 1.7192469817e+00 -2.9778231231e+00 1.7192469817e+00 2.9778231231e+00 
22300 6.6174487239e+00 4.8920499851e-03 1.7190948369e+00 -2.9775596005e+00 1.7190948369e+00 2.9775596005e+00 
22400 6.6174674209e+00 4.5530595209e-03 1.7189525532e+00 -2.9773131579e+00 1.7189525532e+00 2.9773131579e+00 
22500 6.6174879306e+00 4.2150637615e-03 1.7188201179e+00 -2.9770837732e+00 1.7188201179e+00 2.9770837732e+00 
22600 6.6175101482e+00 3.8785129008e-03 1.7186975043e+00 -2.9768714003e+00 1.7186975043e+00 2.9768714003e+00 
22700 6.6175339652e+00 3.5438406846e-03 1.7185846726e+00 -2.9766759701e+00 1.7185846726e+00 2.9766759701e+00 
22800 6.6175592704e+00 3.2114643216e-03 1.7184815702e+00 -2.9764973914e+00 1.7184815702e+00 2.9764973914e+00 
22900 6.6175859499e+00 2.8817844291e-03 1.7183881320e+00 -2.9763355518e+00 1.7183881320e+00 2.9763355518e+00 
23000 6.6176138883e+00 2.5551850128e-03 1.7183042813e+00 -2.9761903181e+00 1.7183042813e+00 2.9761903181e+00 
23100 6.6176429686e+00 2.2320334774e-03 1.7182299299e+00 -2.9760615377e+00 1.7182299299e+00 2.9760615377e+00 
23200 6.6176730730e+00 1.9126806684e-03 1.7181649788e+00 -2.9759490390e+00 1.7181649788e+00 2.9759490390e+00 
23300 6.6177040836e+00 1.5974609416e-03 1.7181093185e+00 -2.9758526326e+00 1.7181093185e+00 2.9758526326e+00 
23400 6.6177358826e+00 1.2866922592e-03 1.7180628298e+00 -2.9757721118e+00 1.7180628298e+00 2.9757721118e+00 
23500 6.6177683530e+00 9.8067631222e-04 1.7180253839e+00 -2.9757072537e+00 1.7180253839e+00 2.9757072537e+00 
23600 6.6178013787e+00 6.7969866486e-04 1.7179968432e+00 -2.9756578197e+00 1.7179968432e+00 2.9756578197e+00 
23700 6.6178348452e+00 3.8402892211e-04 1.7179770615e+00 -2.9756235568e+00 1.7179770615e+00 2.9756235568e+00 
23800 6.6178686403e+00 9.3920917152e-05 1.7179658848e+00 -2.9756041981e+00 1.7179658848e+00 2.9756041981e+00 
23900 6.6179026535e+00 -1.9038708207e-04 1.7179631513e+00 -2.9755994635e+00 1.7179631513e+00 2.9755994635e+00 
24000 6.6179367776e+00 -4.6867214890e-04 1.7179686923e+00 -2.9756090609e+00 1.7179686923e+00 2.9756090609e+00 
24100 6.6179709080e+00 -7.4072645787e-04 1.7179823327e+00 -2.9756326867e+00 1.7179823327e+00 2.9756326867e+00 
24200 6.6180049436e+00 -1.0063570300e-03 1.7180038907e+00 -2.9756700264e+00 1.7180038907e+00 2.9756700264e+00 
24300 6.6180387868e+00 -1.2653854646e-03 1.7180331794e+00 -2.9757207558e+00 1.7180331794e+00 2.9757207558e+00 
24400 6.6180723438e+00 -1.5176476589e-03 1.7180700061e+00 -2.9757845415e+00 1.7180700061e+00 2.9757845415e+00 
24500 6.6181055252e+00 -1.7629935174e-03 1.7181141735e+00 -2.9758610417e+00 1.7181141735e+00 2.9758610417e+00 
24600 6.6181382454e+00 -2.0012866502e-03 1.7181654798e+00 -2.9759499068e+00 1.7181654798e+00 2.9759499068e+00 
24700 6.6181704236e+00 -2.2324040644e-03 1.7182237192e+00 -2.9760507804e+00 1.7182237192e+00 2.9760507804e+00 
24800 6.6182019835e+00 -2.4562358464e-03 1.7182886822e+00 -2.9761632996e+00 1.7182886822e+00 2.9761632996e+00 
24900 6.6182328534e+00 -2.6726848389e-03 1.7183601560e+00 -2.9762870959e+00 1.7183601560e+00 2.9762870959e+00 
25000 6.6182629667e+00 -2.8816663113e-03 1.7184379250e+00 -2.9764217958e+00 1.7184379250e+00 2.9764217958e+00 
25100 6.6182922615e+00 -3.0831076266e-03 1.7185217712e+00 -2.9765670217e+00 1.7185217712e+00 2.9765670217e+00 
25200 6.6183206809e+00 -3.2769479038e-03 1.7186114743e+00 -2.9767223920e+00 1.7186114743e+00 2.9767223920e+00 
25300 6.6183481731e+00 -3.4631376772e-03 1.7187068123e+00 -2.9768875222e+00 1.7187068123e+00 2.9768875222e+00 
25400 6.6183746913e+00 -3.6416385542e-03 1.7188075616e+00 -2.9770620252e+00 1.7188075616e+00 2.9770620252e+00 
25500 6.6184001937e+00 -3.8124228715e-03 1.7189134977e+00 -2.9772455119e+00 1.7189134977e+00 2.9772455119e+00 
25600 6.6184246435e+00 -3.9754733502e-03 1.7190243952e+00 -2.9774375920e+00 1.7190243952e+00 2.9774375920e+00 
25700 6.6184480090e+00 -4.1307827510e-03 1.7191400282e+00 -2.9776378742e+00 1.7191400282e+00 2.9776378742e+00 
25800 6.6184702631e+00 -4.2783535302e-03 1.7192601706e+00 -2.9778459668e+00 1.7192601706e+00 2.9778459668e+00 
25900 6.6184913837e+00 -4.4181974968e-03 1.7193845963e+00 -2.9780614786e+00 1.7193845963e+00 2.9780614786e+00 
26000 6.6185113536e+00 -4.5503354703e-03 1.7195130799e+00 -2.9782840186e+00 1.7195130799e+00 2.9782840186e+00 
26100 6.6185301599e+00 -4.6747969422e-03 1.7196453962e+00 -2.9785131972e+00 1.7196453962e+00 2.9785131972e+00 
26200 6.6185477945e+00 -4.7916197385e-03 1.7197813213e+00 -2.9787486264e+00 1.7197813213e+00 2.9787486264e+00 
26300 6.6185642533e+00 -4.9008496865e-03 1.7199206322e+00 -2.9789899199e+00 1.7199206322e+00 2.9789899199e+00 
26400 6.6185795369e+00 -5.0025402838e-03 1.7200631073e+00 -2.9792366940e+00 1.7200631073e+00 2.9792366940e+00 
26500 6.6185936496e+00 -5.0967523719e-03 1.7202085267e+00 -2.9794885678e+00 1.7202085267e+00 2.9794885678e+00 
26600 6.6186065997e+00 -5.1835538139e-03 1.7203566722e+00 -2.9797451634e+00 1.7203566722e+00 2.9797451634e+00 
26700 6.6186183994e+00 -5.2630191755e-03 1.7205073279e+00 -2.9800061067e+00 1.7205073279e+00 2.9800061067e+00 
26800 6.6186290643e+00 -5.3352294123e-03 1.7206602798e+00 -2.9802710271e+00 1.7206602798e+00 2.9802710271e+00 
26900 6.6186386133e+00 -5.4002715603e-03 1.7208153165e+00 -2.9805395586e+00 1.7208153165e+00 2.9805395586e+00 
27000 6.6186470687e+00 -5.4582384328e-03 1.7209722291e+00 -2.9808113392e+00 1.7209722291e+00 2.9808113392e+00 
27100 6.6186544555e+00 -5.5092283220e-03 1.7211308116e+00 -2.9810860122e+00 1.7211308116e+00 2.9810860122e+00 
27200 6.6186608018e+00 -5.5533447062e-03 1.7212908609e+00 -2.9813632256e+00 1.7212908609e+00 2.9813632256e+00 
27300 6.6186661380e+00 -5.5906959623e-03 1.7214521768e+00 -2.9816426330e+00 1.7214521768e+00 2.9816426330e+00 
27400 6.6186704970e+00 -5.6213950851e-03 1.7216145625e+00 -2.9819238932e+00 1.7216145625e+00 2.9819238932e+00 
27500 6.6186739139e+00 -5.6455594109e-03 1.7217778244e+00 -2.9822066713e+00 1.7217778244e+00 2.9822066713e+00 
27600 6.6186764256e+00 -5.6633103489e-03 1.7219417727e+00 -2.9824906380e+00 1.7219417727e+00 2.9824906380e+00 
27700 6.6186780709e+00 -5.6747731167e-03 1.7221062208e+00 -2.9827754704e+00 1.7221062208e+00 2.9827754704e+00 
27800 6.6186788900e+00 -5.6800764839e-03 1.7222709860e+00 -2.9830608521e+00 1.7222709860e+00 2.9830608521e+00 
27900 6.6186789247e+00 -5.6793525202e-03 1.7224358894e+00 -2.9833464732e+00 1.7224358894e+00 2.9833464732e+00 
28000 6.6186782176e+00 -5.6727363506e-03 1.7226007560e+00 -2.9836320305e+00 1.7226007560e+00 2.9836320305e+00 
28100 6.6186768125e+00 -5.6603659165e-03 1.7227654148e+00 -2.9839172279e+00 1.7227654148e+00 2.9839172279e+00 
28200 6.6186747538e+00 -5.6423817432e-03 1.7229296988e+00 -2.9842017761e+00 1.7229296988e+00 2.9842017761e+00 
28300 6.6186720867e+00 -5.6189267136e-03 1.7230934452e+00 -2.9844853932e+00 1.7230934452e+00 2.9844853932e+00 
28400 6.6186688563e+00 -5.5901458476e-03 1.7232564954e+00 -2.9847678045e+00 1.7232564954e+00 2.9847678045e+00 
28500 6.6186651085e+00 -5.5561860881e-03 1.7234186951e+00 -2.9850487426e+00 1.7234186951e+00 2.9850487426e+00 
28600 6.6186608887e+00 -5.5171960933e-03 1.7235798942e+00 -2.9853279477e+00 1.7235798942e+00 2.9853279477e+00 
28700 6.6186562425e+00 -5.4733260344e-03 1.7237399472e+00 -2.9856051676e+00 1.7237399472e+00 2.9856051676e+00 
28800 6.6186512151e+00 -5.4247273999e-03 1.7238987127e+00 -2.9858801576e+00 1.7238987127e+00 2.9858801576e+00 
28900 6.6186458511e+00 -5.3715528055e-03 1.7240560541e+00 -2.9861526807e+00 1.7240560541e+00 2.9861526807e+00 
29000 6.6186401947e+00 -5.3139558098e-03 1.7242118388e+00 -2.9864225079e+00 1.7242118388e+00 2.9864225079e+00 
29100 6.6186342894e+00 -5.2520907361e-03 1.7243659392e+00 -2.9866894176e+00 1.7243659392e+00 2.9866894176e+00 
29200 6.6186281775e+00 -5.1861124997e-03 1.7245182320e+00 -2.9869531964e+00 1.7245182320e+00 2.9869531964e+00 
29300 6.6186219006e+00 -5.1161764403e-03 1.7246685983e+00 -2.9872136384e+00 1.7246685983e+00 2.9872136384e+00 
29400 6.6186154993e+00 -5.0424381611e-03 1.7248169238e+00 -2.9874705459e+00 1.7248169238e+00 2.9874705459e+00 
29500 6.6186090125e+00 -4.9650533719e-03 1.7249630990e+00 -2.9877237287e+00 1.7249630990e+00 2.9877237287e+00 
29600 6.6186024784e+00 -4.8841777387e-03 1.7251070187e+00 -2.9879730049e+00 1.7251070187e+00 2.9879730049e+00 
29700 6.6185959333e+00 -4.7999667373e-03 1.7252485822e+00 -2.9882182001e+00 1.7252485822e+00 2.9882182001e+00 
29800 6.6185894123e+00 -4.7125755132e-03 1.7253876935e+00 -2.9884591480e+00 1.7253876935e+00 2.9884591480e+00 
29900 6.6185829489e+00 -4.6221587451e-03 1.7255242610e+00 -2.9886956898e+00 1.7255242610e+00 2.9886956898e+00 
30000 6.6185765748e+00 -4.5288705150e-03 1.7256581977e+00 -2.9889276749e+00 1.7256581977e+00 2.9889276749e+00 
30100 6.6185703204e+00 -4.4328641809e-03 1.7257894209e+00 -2.9891549601e+00 1.7257894209e+00 2.9891549601e+00 
30200 6.6185642139e+00 -4.3342922559e-03 1.7259178525e+00 -2.9893774102e+00 1.7259178525e+00 2.9893774102e+00 
30300 6.6185582822e+00 -4.2333062912e-03 1.7260434189e+00 -2.9895948976e+00 1.7260434189e+00 2.9895948976e+00 
30400 6.6185525501e+00 -4.1300567628e-03 1.7261660507e+00 -2.9898073021e+00 1.7261660507e+00 2.9898073021e+00 
30500 6.6185470407e+00 -4.0246929637e-03 1.7262856830e+00 -2.9900145113e+00 1.7262856830e+00 2.9900145113e+00 
30600 6.6185417751e+00 -3.9173628992e-03 1.7264022552e+00 -2.9902164203e+00 1.7264022552e+00 2.9902164203e+00 
30700 6.6185367729e+00 -3.8082131870e-03 1.7265157110e+00 -2.9904129314e+00 1.7265157110e+00 2.9904129314e+00 
30800 6.6185320515e+00 -3.6973889607e-03 1.7266259982e+00 -2.9906039546e+00 1.7266259982e+00 2.9906039546e+00 
30900 6.6185276266e+00 -3.5850337775e-03 1.7267330691e+00 -2.9907894068e+00 1.7267330691e+00 2.9907894068e+00 
31000 6.6185235121e+00 -3.4712895295e-03 1.7268368799e+00 -2.9909692123e+00 1.7268368799e+00 2.9909692123e+00 
31100 6.6185197200e+00 -3.3562963586e-03 1.7269373909e+00 -2.9911433025e+00 1.7269373909e+00 2.9911433025e+00 
31200 6.6185162605e+00 -3.2401925748e-03 1.7270345666e+00 -2.9913116158e+00 1.7270345666e+00 2.9913116158e+00 
31300 6.6185131422e+00 -3.1231145786e-03 1.7271283755e+00 -2.9914740975e+00 1.7271283755e+00 2.9914740975e+00 
31400 6.6185103718e+00 -3.0051967858e-03 1.7272187897e+00 -2.9916306996e+00 1.7272187897e+00 2.9916306996e+00 
31500 6.6185079542e+00 -2.8865715562e-03 1.7273057857e+00 -2.9917813811e+00 1.7273057857e+00 2.9917813811e+00 
31600 6.6185058930e+00 -2.7673691252e-03 1.7273893435e+00 -2.9919261073e+00 1.7273893435e+00 2.9919261073e+00 
31700 6.6185041898e+00 -2.6477175391e-03 1.7274694467e+00 -2.9920648502e+00 1.7274694467e+00 2.9920648502e+00 
31800 6.6185028451e+00 -2.5277425923e-03 1.7275460830e+00 -2.9921975882e+00 1.7275460830e+00 2.9921975882e+00 
31900 6.6185018574e+00 -2.4075677684e-03 1.7276192434e+00 -2.9923243058e+00 1.7276192434e+00 2.9923243058e+00 
32000 6.6185012242e+00 -2.2873141841e-03 1.7276889227e+00 -2.9924449938e+00 1.7276889227e+00 2.9924449938e+00 
32100 6.6185009414e+00 -2.1671005354e-03 1.7277551189e+00 -2.9925596490e+00 1.7277551189e+00 2.9925596490e+00 
32200 6.6185010036e+00 -2.0470430473e-03 1.7278178336e+00 -2.9926682740e+00 1.7278178336e+00 2.9926682740e+00 
32300 6.6185014043e+00 -1.9272554252e-03 1.7278770718e+00 -2.9927708775e+00 1.7278770718e+00 2.9927708775e+00 
32400 6.6185021358e+00 -1.8078488102e-03 1.7279328415e+00 -2.9928674736e+00 1.7279328415e+00 2.9928674736e+00 
32500 6.6185031892e+00 -1.6889317361e-03 1.7279851543e+00 -2.9929580819e+00 1.7279851543e+00 2.9929580819e+00 
32600 6.6185045547e+00 -1.5706100894e-03 1.7280340245e+00 -2.9930427276e+00 1.7280340245e+00 2.9930427276e+00 
32700 6.6185062214e+00 -1.4529870717e-03 1.7280794697e+00 -2.9931214410e+00 1.7280794697e+00 2.9931214410e+00 
32800 6.6185081777e+00 -1.3361631643e-03 1.7281215103e+00 -2.9931942576e+00 1.7281215103e+00 2.9931942576e+00 
32900 6.6185104112e+00 -1.2202360962e-03 1.7281601699e+00 -2.9932612179e+00 1.7281601699e+00 2.9932612179e+00 
33000 6.6185129088e+00 -1.1053008133e-03 1.7281954745e+00 -2.9933223673e+00 1.7281954745e+00 2.9933223673e+00 
33100 6.6185156565e+00 -9.9144945087e-04 1.7282274531e+00 -2.9933777558e+00 1.7282274531e+00 2.9933777558e+00 
33200 6.6185186401e+00 -8.7877130841e-04 1.7282561371e+00 -2.9934274380e+00 1.7282561371e+00 2.9934274380e+00 
33300 6.6185218447e+00 -7.6735282624e-04 1.7282815609e+00 -2.9934714732e+00 1.7282815609e+00 2.9934714732e+00 
33400 6.6185252550e+00 -6.5727756501e-04 1.7283037608e+00 -2.9935099246e+00 1.7283037608e+00 2.9935099246e+00 
33500 6.6185288555e+00 -5.4862618735e-04 1.7283227759e+00 -2.9935428598e+00 1.7283227759e+00 2.9935428598e+00 
33600 6.6185326303e+00 -4.4147644184e-04 1.7283386476e+00 -2.9935703503e+00 1.7283386476e+00 2.9935703503e+00 
33700 6.6185365634e+00 -3.3590314928e-04 1.7283514193e+00 -2.9935924716e+00 1.7283514193e+00 2.9935924716e+00 
33800 6.6185406385e+00 -2.3197819127e-04 1.7283611367e+00 -2.9936093027e+00 1.7283611367e+00 2.9936093027e+00 
33900 6.6185448395e+00 -1.2977050105e-04 1.7283678477e+00 -2.9936209264e+00 1.7283678477e+00 2.9936209264e+00 
34000 6.6185491501e+00 -2.9346056654e-05 1.7283716018e+00 -2.9936274287e+00 1.7283716018e+00 2.9936274287e+00 
34100 6.6185535540e+00 6.8129461328e-05 1.7283716018e+00 -2.9936274287e+00 1.7283716018e+00 2.9936274287e+00 
34200 6.6185580358e+00 1.6739368592e-04 1.7283716018e+00 -2.9936274287e+00 1.7283716018e+00 2.9936274287e+00 
34300 6.6185625791e+00 2.6205838144e-04 1.7283667593e+00 -2.9936190412e+00 1.7283667593e+00 2.9936190412e+00 
34400 6.6185671683e+00 3.5470714203e-04 1.7283591782e+00 -2.9936059104e+00 1.7283591782e+00 2.9936059104e+00 
34500 6.6185717882e+00 4.4528869716e-04 1.7283489168e+00 -2.9935881372e+00 1.7283489168e+00 2.9935881372e+00 
34600 6.6185764238e+00 5.3375473084e-04 1.7283360349e+00 -2.9935658251e+00 1.7283360349e+00 2.9935658251e+00 
34700 6.6185810604e+00 6.2005987252e-04 1.7283205937e+00 -2.9935390800e+00 1.7283205937e+00 2.9935390800e+00 
34800 6.6185856841e+00 7.0416168590e-04 1.7283026555e+00 -2.9935080101e+00 1.7283026555e+00 2.9935080101e+00 
34900 6.6185902809e+00 7.8602065546e-04 1.7282822840e+00 -2.9934727258e+00 1.7282822840e+00 2.9934727258e+00 
35000 6.6185948379e+00 8.6560017090e-04 1.7282595441e+00 -2.9934333391e+00 1.7282595441e+00 2.9934333391e+00 
35100 6.6185993424e+00 9.4286650938e-04 1.7282345017e+00 -2.9933899643e+00 1.7282345017e+00 2.9933899643e+00 
35200 6.6186037823e+00 1.0177888156e-03 1.7282072234e+00 -2.9933427170e+00 1.7282072234e+00 2.9933427170e+00 
35300 6.6186081462e+00 1.0903390800e-03 1.7281777771e+00 -2.9932917145e+00 1.7281777771e+00 2.9932917145e+00 
35400 6.6186124232e+00 1.1604921143e-03 1.7281462313e+00 -2.9932370755e+00 1.7281462313e+00 2.9932370755e+00 
35500 6.6186166031e+00 1.2282255256e-03 1.7281126552e+00 -2.9931789200e+00 1.7281126552e+00 2.9931789200e+00 
35600 6.6186206764e+00 1.2935196882e-03 1.7280771187e+00 -2.9931173690e+00 1.7280771187e+00 2.9931173690e+00 
35700 6.6186246343e+00 1.3563577129e-03 1.7280396923e+00 -2.9930525445e+00 1.7280396923e+00 2.9930525445e+00 
35800 6.6186284686e+00 1.4167254154e-03 1.7280004469e+00 -2.9929845695e+00 1.7280004469e+00 2.9929845695e+00 
35900 6.6186321717e+00 1.4746112816e-03 1.7279594538e+00 -2.9929135675e+00 1.7279594538e+00 2.9929135675e+00 
36000 6.6186357369e+00 1.5300064318e-03 1.7279167849e+00 -2.9928396626e+00 1.7279167849e+00 2.9928396626e+00 
36100 6.6186391582e+00 1.5829045822e-03 1.7278725119e+00 -2.9927629796e+00 1.7278725119e+00 2.9927629796e+00 
36200 6.6186424302e+00 1.6333020056e-03 1.7278267071e+00 -2.9926836433e+00 1.7278267071e+00 2.9926836433e+00 
36300 6.6186455481e+00 1.6811974893e-03 1.7277794427e+00 -2.9926017790e+00 1.7277794427e+00 2.9926017790e+00 
36400 6.6186485080e+00 1.7265922920e-03 1.7277307909e+00 -2.9925175117e+00 1.7277307909e+00 2.9925175117e+00 
36500 6.6186513067e+00 1.7694900983e-03 1.7276808241e+00 -2.9924309666e+00 1.7276808241e+00 2.9924309666e+00 
36600 6.6186539414e+00 1.8098969720e-03 1.7276296144e+00 -2.9923422688e+00 1.7276296144e+00 2.9923422688e+00 
36700 6.6186564102e+00 1.8478213078e-03 1.7275772337e+00 -2.9922515428e+00 1.7275772337e+00 2.9922515428e+00 
36800 6.6186587118e+00 1.8832737816e-03 1.7275237539e+00 -2.9921589130e+00 1.7275237539e+00 2.9921589130e+00 
36900 6.6186608456e+00 1.9162672982e-03 1.7274692462e+00 -2.9920645030e+00 1.7274692462e+00 2.9920645030e+00 
37000 6.6186628114e+00 1.9468169394e-03 1.7274137820e+00 -2.9919684360e+00 1.7274137820e+00 2.9919684360e+00 
37100 6.6186646098e+00 1.9749399091e-03 1.7273574316e+00 -2.9918708344e+00 1.7273574316e+00 2.9918708344e+00 
37200 6.6186662418e+00 2.0006554781e-03 1.7273002654e+00 -2.9917718197e+00 1.7273002654e+00 2.9917718197e+00 
37300 6.6186677092e+00 2.0239849273e-03 1.7272423530e+00 -2.9916715123e+00 1.7272423530e+00 2.9916715123e+00 
37400 6.6186690140e+00 2.0449514896e-03 1.7271837632e+00 -2.9915700319e+00 1.7271837632e+00 2.9915700319e+00 
37500 6.6186701590e+00 2.0635802911e-03 1.7271245646e+00 -2.9914674968e+00 1.7271245646e+00 2.9914674968e+00 
37600 6.6186711473e+00 2.0798982913e-03 1.7270648246e+00 -2.9913640241e+00 1.7270648246e+00 2.9913640241e+00 
37700 6.6186719825e+00 2.0939342214e-03 1.7270046101e+00 -2.9912597296e+00 1.7270046101e+00 2.9912597296e+00 
37800 6.6186726685e+00 2.1057185234e-03 1.7269439871e+00 -2.9911547276e+00 1.7269439871e+00 2.9911547276e+00 
37900 6.6186732097e+00 2.1152832871e-03 1.7268830209e+00 -2.9910491309e+00 1.7268830209e+00 2.9910491309e+00 
38000 6.6186736109e+00 2.1226621868e-03 1.7268217755e+00 -2.9909430509e+00 1.7268217755e+00 2.9909430509e+00 
38100 6.6186738772e+00 2.1278904174e-03 1.7267603144e+00 -2.9908365970e+00 1.7267603144e+00 2.9908365970e+00 
38200 6.6186740139e+00 2.1310046303e-03 1.7266986996e+00 -2.9907298771e+00 1.7266986996e+00 2.9907298771e+00 
38300 6.6186740267e+00 2.1320428682e-03 1.7266369925e+00 -2.9906229973e+00 1.7266369925e+00 2.9906229973e+00 
38400 6.6186739213e+00 2.1310444998e-03 1.7265752531e+00 -2.9905160615e+00 1.7265752531e+00 2.9905160615e+00 
38500 6.6186737040e+00 2.1280501546e-03 1.7265135405e+00 -2.9904091720e+00 1.7265135405e+00 2.9904091720e+00 
38600 6.6186733810e+00 2.1231016569e-03 1.7264519123e+00 -2.9903024289e+00 1.7264519123e+00 2.9903024289e+00 
38700 6.6186729586e+00 2.1162419600e-03 1.7263904252e+00 -2.9901959302e+00 1.7263904252e+00 2.9901959302e+00 
38800 6.6186724435e+00 2.1075150801e-03 1.7263291346e+00 -2.9900897718e+00 1.7263291346e+00 2.9900897718e+00 
38900 6.6186718422e+00 2.0969660308e-03 1.7262680946e+00 -2.9899840474e+00 1.7262680946e+00 2.9899840474e+00 
39000 6.6186711614e+00 2.0846407568e-03 1.7262073580e+00 -2.9898788485e+00 1.7262073580e+00 2.9898788485e+00 
39100 6.6186704079e+00 2.0705860690e-03 1.7261469763e+00 -2.9897742642e+00 1.7261469763e+00 2.9897742642e+00 
39200 6.6186695884e+00 2.0548495784e-03 1.7260869995e+00 -2.9896703814e+00 1.7260869995e+00 2.9896703814e+00 
39300 6.6186687096e+00 2.0374796318e-03 1.7260274765e+00 -2.9895672846e+00 1.7260274765e+00 2.9895672846e+00 
39400 6.6186677782e+00 2.0185252468e-03 1.7259684546e+00 -2.9894650557e+00 1.7259684546e+00 2.9894650557e+00 
39500 6.6186668008e+00 1.9980360482e-03 1.7259099798e+00 -2.9893637743e+00 1.7259099798e+00 2.9893637743e+00 
39600 6.6186657839e+00 1.9760622040e-03 1.7258520966e+00 -2.9892635176e+00 1.7258520966e+00 2.9892635176e+00 
39700 6.6186647341e+00 1.9526543630e-03 1.7257948480e+00 -2.9891643602e+00 1.7257948480e+00 2.9891643602e+00 
39800 6.6186636576e+00 1.9278635924e-03 1.7257382757e+00 -2.9890663741e+00 1.7257382757e+00 2.9890663741e+00 
39900 6.6186625605e+00 1.9017413166e-03 1.7256824198e+00 -2.9889696288e+00 1.7256824198e+00 2.9889696288e+00 
40000 6.6186614490e+00 1.8743392566e-03 1.7256273190e+00 -2.9888741914e+00 1.7256273190e+00 2.9888741914e+00 
40100 6.6186603287e+00 1.8457093702e-03 1.7255730103e+00 -2.9887801260e+00 1.7255730103e+00 2.9887801260e+00 
40200 6.6186592054e+00 1.8159037937e-03 1.7255195295e+00 -2.9886874946e+00 1.7255195295e+00 2.9886874946e+00 
40300 6.6186580844e+00 1.7849747839e-03 1.7254669108e+00 -2.9885963562e+00 1.7254669108e+00 2.9885963562e+00 
40400 6.6186569710e+00 1.7529746617e-03 1.7254151866e+00 -2.9885067674e+00 1.7254151866e+00 2.9885067674e+00 
40500 6.6186558701e+00 1.7199557562e-03 1.7253643882e+00 -2.9884187820e+00 1.7253643882e+00 2.9884187820e+00 
40600 6.6186547865e+00 1.6859703510e-03 1.7253145452e+00 -2.9883324513e+00 1.7253145452e+00 2.9883324513e+00 
40700 6.6186537247e+00 1.6510706305e-03 1.7252656856e+00 -2.9882478241e+00 1.7252656856e+00 2.9882478241e+00 
40800 6.6186526888e+00 1.6153086284e-03 1.7252178361e+00 -2.9881649463e+00 1.7252178361e+00 2.9881649463e+00 
40900 6.6186516828e+00 1.5787361769e-03 1.7251710217e+00 -2.9880838613e+00 1.7251710217e+00 2.9880838613e+00 
41000 6.6186507104e+00 1.5414048574e-03 1.7251252660e+00 -2.9880046101e+00 1.7251252660e+00 2.9880046101e+00 
41100 6.6186497750e+00 1.5033659528e-03 1.7250805910e+00 -2.9879272308e+00 1.7250805910e+00 2.9879272308e+00 
41200 6.6186488798e+00 1.4646704006e-03 1.7250370174e+00 -2.9878517591e+00 1.7250370174e+00 2.9878517591e+00 
41300 6.6186480276e+00 1.4253687484e-03 1.7249945643e+00 -2.9877782281e+00 1.7249945643e+00 2.9877782281e+00 
41400 6.6186472209e+00 1.3855111095e-03 1.7249532493e+00 -2.9877066684e+00 1.7249532493e+00 2.9877066684e+00 
41500 6.6186464622e+00 1.3451471213e-03 1.7249130886e+00 -2.9876371081e+00 1.7249130886e+00 2.9876371081e+00 
41600 6.6186457533e+00 1.3043259042e-03 1.7248740970e+00 -2.9875695727e+00 1.7248740970e+00 2.9875695727e+00 
41700 6.6186450960e+00 1.2630960226e-03 1.7248362878e+00 -2.9875040853e+00 1.7248362878e+00 2.9875040853e+00 
41800 6.6186444919e+00 1.2215054469e-03 1.7247996730e+00 -2.9874406665e+00 1.7247996730e+00 2.9874406665e+00 
41900 6.6186439421e+00 1.1796015178e-03 1.7247642631e+00 -2.9873793347e+00 1.7247642631e+00 2.9873793347e+00 
42000 6.6186434475e+00 1.1374309109e-03 1.7247300672e+00 -2.9873201057e+00 1.7247300672e+00 2.9873201057e+00 
42100 6.6186430089e+00 1.0950396045e-03 1.7246970931e+00 -2.9872629929e+00 1.7246970931e+00 2.9872629929e+00 
42200 6.6186426267e+00 1.0524728471e-03 1.7246653473e+00 -2.9872080076e+00 1.7246653473e+00 2.9872080076e+00 
42300 6.6186423011e+00 1.0097751280e-03 1.7246348350e+00 -2.9871551588e+00 1.7246348350e+00 2.9871551588e+00 
42400 6.6186420321e+00 9.6699014825e-04 1.7246055601e+00 -2.9871044531e+00 1.7246055601e+00 2.9871044531e+00 
42500 6.6186418194e+00 9.2416079426e-04 1.7245775251e+00 -2.9870558950e+00 1.7245775251e+00 2.9870558950e+00 
42600 6.6186416625e+00 8.8132911185e-04 1.7245507313e+00 -2.9870094868e+00 1.7245507313e+00 2.9870094868e+00 
42700 6.6186415608e+00 8.3853628250e-04 1.7245251789e+00 -2.9869652288e+00 1.7245251789e+00 2.9869652288e+00 
42800 6.6186415133e+00 7.9582260090e-04 1.7245008669e+00 -2.9869231192e+00 1.7245008669e+00 2.9869231192e+00 
42900 6.6186415191e+00 7.5322745398e-04 1.7244777929e+00 -2.9868831539e+00 1.7244777929e+00 2.9868831539e+00 
43000 6.6186415769e+00 7.1078930145e-04 1.7244559537e+00 -2.9868453272e+00 1.7244559537e+00 2.9868453272e+00 
43100 6.6186416853e+00 6.6854565778e-04 1.7244353447e+00 -2.9868096313e+00 1.7244353447e+00 2.9868096313e+00 
43200 6.6186418427e+00 6.2653307563e-04 1.7244159602e+00 -2.9867760565e+00 1.7244159602e+00 2.9867760565e+00 
43300 6.6186420476e+00 5.8478713073e-04 1.7243977937e+00 -2.9867445912e+00 1.7243977937e+00 2.9867445912e+00 
43400 6.6186422979e+00 5.4334240807e-04 1.7243808375e+00 -2.9867152221e+00 1.7243808375e+00 2.9867152221e+00 
43500 6.6186425919e+00 5.0223248961e-04 1.7243650828e+00 -2.9866879342e+00 1.7243650828e+00 2.9866879342e+00 
43600 6.6186429275e+00 4.6148994320e-04 1.7243505200e+00 -2.9866627107e+00 1.7243505200e+00 2.9866627107e+00 
43700 6.6186433026e+00 4.2114631294e-04 1.7243371384e+00 -2.9866395331e+00 1.7243371384e+00 2.9866395331e+00 
43800 6.6186437148e+00 3.8123211077e-04 1.7243249266e+00 -2.9866183817e+00 1.7243249266e+00 2.9866183817e+00 
43900 6.6186441621e+00 3.4177680933e-04 1.7243138721e+00 -2.9865992347e+00 1.7243138721e+00 2.9865992347e+00 
44000 6.6186446420e+00 3.0280883618e-04 1.7243039616e+00 -2.9865820692e+00 1.7243039616e+00 2.9865820692e+00 
44100 6.6186451521e+00 2.6435556904e-04 1.7242951810e+00 -2.9865668607e+00 1.7242951810e+00 2.9865668607e+00 
44200 6.6186456900e+00 2.2644333244e-04 1.7242875154e+00 -2.9865535835e+00 1.7242875154e+00 2.9865535835e+00 
44300 6.6186462533e+00 1.8909739529e-04 1.7242809491e+00 -2.9865422104e+00 1.7242809491e+00 2.9865422104e+00 
44400 6.6186468394e+00 1.5234196981e-04 1.7242754657e+00 -2.9865327129e+00 1.7242754657e+00 2.9865327129e+00 
44500 6.6186474460e+00 1.1620021136e-04 1.7242710482e+00 -2.9865250614e+00 1.7242710482e+00 2.9865250614e+00 
44600 6.6186480705e+00 8.0694219430e-05 1.7242676786e+00 -2.9865192252e+00 1.7242676786e+00 2.9865192252e+00 
44700 6.6186487105e+00 4.5845039659e-05 1.7242653387e+00 -2.9865151723e+00 1.7242653387e+00 2.9865151723e+00 
44800 6.6186493635e+00 1.3410767216e-05 1.7242653387e+00 -2.9865151723e+00 1.7242653387e+00 2.9865151723e+00 
44900 6.6186500270e+00 -1.9608814018e-05 1.7242653387e+00 -2.9865151723e+00 1.7242653387e+00 2.9865151723e+00 
45000 6.6186506988e+00 -5.3179697246e-05 1.7242653387e+00 -2.9865151723e+00 1.7242653387e+00 2.9865151723e+00 
45100 6.6186513768e+00 -8.7268390531e-05 1.7242653387e+00 -2.9865151723e+00 1.7242653387e+00 2.9865151723e+00 
45200 6.6186520584e+00 -1.1853375919e-04 1.7242678693e+00 -2.9865195554e+00 1.7242678693e+00 2.9865195554e+00 
45300 6.6186527414e+00 -1.4903880184e-04 1.7242713065e+00 -2.9865255089e+00 1.7242713065e+00 2.9865255089e+00 
45400 6.6186534238e+00 -1.7876966532e-04 1.7242756283e+00 -2.9865329944e+00 1.7242756283e+00 2.9865329944e+00 
45500 6.6186541034e+00 -2.0771350404e-04 1.7242808122e+00 -2.9865419732e+00 1.7242808122e+00 2.9865419732e+00 
45600 6.6186547782e+00 -2.3585846999e-04 1.7242868354e+00 -2.9865524057e+00 1.7242868354e+00 2.9865524057e+00 
45700 6.6186554465e+00 -2.6319370226e-04 1.7242936747e+00 -2.9865642517e+00 1.7242936747e+00 2.9865642517e+00 
45800 6.6186561062e+00 -2.8970931574e-04 1.7243013066e+00 -2.9865774706e+00 1.7243013066e+00 2.9865774706e+00 
45900 6.6186567557e+00 -3.1539638926e-04 1.7243097074e+00 -2.9865920212e+00 1.7243097074e+00 2.9865920212e+00 
46000 6.6186573934e+00 -3.4024695311e-04 1.7243188530e+00 -2.9866078618e+00 1.7243188530e+00 2.9866078618e+00 
46100 6.6186580178e+00 -3.6425397596e-04 1.7243287191e+00 -2.9866249505e+00 1.7243287191e+00 2.9866249505e+00 
46200 6.6186586273e+00 -3.8741135130e-04 1.7243392813e+00 -2.9866432448e+00 1.7243392813e+00 2.9866432448e+00 
46300 6.6186592206e+00 -4.0971388331e-04 1.7243505150e+00 -2.9866627020e+00 1.7243505150e+00 2.9866627020e+00 
46400 6.6186597965e+00 -4.3115727224e-04 1.7243623952e+00 -2.9866832792e+00 1.7243623952e+00 2.9866832792e+00 
46500 6.6186603539e+00 -4.5173809940e-04 1.7243748972e+00 -2.9867049332e+00 1.7243748972e+00 2.9867049332e+00 
46600 6.6186608917e+00 -4.7145381162e-04 1.7243879958e+00 -2.9867276207e+00 1.7243879958e+00 2.9867276207e+00 
46700 6.6186614090e+00 -4.9030270540e-04 1.7244016660e+00 -2.9867512982e+00 1.7244016660e+00 2.9867512982e+00 
46800 6.6186619049e+00 -5.0828391061e-04 1.7244158826e+00 -2.9867759221e+00 1.7244158826e+00 2.9867759221e+00 
46900 6.6186623789e+00 -5.2539737390e-04 1.7244306205e+00 -2.9868014488e+00 1.7244306205e+00 2.9868014488e+00 
47000 6.6186628302e+00 -5.4164384172e-04 1.7244458545e+00 -2.9868278348e+00 1.7244458545e+00 2.9868278348e+00 
47100 6.6186632583e+00 -5.5702484308e-04 1.7244615593e+00 -2.9868550365e+00 1.7244615593e+00 2.9868550365e+00 
47200 6.6186636629e+00 -5.7154267200e-04 1.7244777101e+00 -2.9868830103e+00 1.7244777101e+00 2.9868830103e+00 
47300 6.6186640435e+00 -5.8520036976e-04 1.7244942816e+00 -2.9869117130e+00 1.7244942816e+00 2.9869117130e+00 
47400 6.6186644001e+00 -5.9800170682e-04 1.7245112489e+00 -2.9869411013e+00 1.7245112489e+00 2.9869411013e+00 
47500 6.6186647324e+00 -6.0995116462e-04 1.7245285872e+00 -2.9869711322e+00 1.7245285872e+00 2.9869711322e+00 
47600 6.6186650404e+00 -6.2105391714e-04 1.7245462718e+00 -2.9870017628e+00 1.7245462718e+00 2.9870017628e+00 
47700 6.6186653242e+00 -6.3131581229e-04 1.7245642781e+00 -2.9870329507e+00 1.7245642781e+00 2.9870329507e+00 
47800 6.6186655840e+00 -6.4074335312e-04 1.7245825818e+00 -2.9870646535e+00 1.7245825818e+00 2.9870646535e+00 
47900 6.6186658198e+00 -6.4934367900e-04 1.7246011586e+00 -2.9870968295e+00 1.7246011586e+00 2.9870968295e+00 
48000 6.6186660321e+00 -6.5712454654e-04 1.7246199846e+00 -2.9871294370e+00 1.7246199846e+00 2.9871294370e+00 
48100 6.6186662212e+00 -6.6409431054e-04 1.7246390359e+00 -2.9871624349e+00 1.7246390359e+00 2.9871624349e+00 
48200 6.6186663875e+00 -6.7026190476e-04 1.7246582891e+00 -2.9871957823e+00 1.7246582891e+00 2.9871957823e+00 
48300 6.6186665315e+00 -6.7563682268e-04 1.7246777208e+00 -2.9872294391e+00 1.7246777208e+00 2.9872294391e+00 
48400 6.6186666538e+00 -6.8022909823e-04 1.7246973082e+00 -2.9872633655e+00 1.7246973082e+00 2.9872633655e+00 
48500 6.6186667550e+00 -6.8404928642e-04 1.7247170285e+00 -2.9872975220e+00 1.7247170285e+00 2.9872975220e+00 
48600 6.6186668357e+00 -6.8710844399e-04 1.7247368593e+00 -2.9873318700e+00 1.7247368593e+00 2.9873318700e+00 
48700 6.6186668968e+00 -6.8941811009e-04 1.7247567785e+00 -2.9873663711e+00 1.7247567785e+00 2.9873663711e+00 
48800 6.6186669389e+00 -6.9099028689e-04 1.7247767645e+00 -2.9874009879e+00 1.7247767645e+00 2.9874009879e+00 
48900 6.6186669629e+00 -6.9183742029e-04 1.7247967959e+00 -2.9874356832e+00 1.7247967959e+00 2.9874356832e+00 
49000 6.6186669696e+00 -6.9197238061e-04 1.7248168515e+00 -2.9874704206e+00 1.7248168515e+00 2.9874704206e+00 
49100 6.6186669598e+00 -6.9140844340e-04 1.7248369109e+00 -2.9875051644e+00 1.7248369109e+00 2.9875051644e+00 
49200 6.6186669345e+00 -6.9015927018e-04 1.7248569536e+00 -2.9875398795e+00 1.7248569536e+00 2.9875398795e+00 
49300 6.6186668945e+00 -6.8823888944e-04 1.7248769599e+00 -2.9875745314e+00 1.7248769599e+00 2.9875745314e+00 
49400 6.6186668409e+00 -6.8566167751e-04 1.7248969104e+00 -2.9876090866e+00 1.7248969104e+00 2.9876090866e+00 
49500 6.6186667745e+00 -6.8244233973e-04 1.7249167858e+00 -2.9876435119e+00 1.7249167858e+00 2.9876435119e+00 
49600 6.6186666963e+00 -6.7859589156e-04 1.7249365678e+00 -2.9876777752e+00 1.7249365678e+00 2.9876777752e+00 
49700 6.6186666073e+00 -6.7413763991e-04 1.7249562380e+00 -2.9877118450e+00 1.7249562380e+00 2.9877118450e+00 
49800 6.6186665084e+00 -6.6908316455e-04 1.7249757787e+00 -2.9877456906e+00 1.7249757787e+00 2.9877456906e+00 
49900 6.6186664007e+00 -6.6344829963e-04 1.7249951727e+00 -2.9877792820e+00 1.7249951727e+00 2.9877792820e+00 
50000 6.6186662850e+00 -6.5724911544e-04 1.7250144032e+00 -2.9878125902e+00 1.7250144032e+00 2.9878125902e+00 
50100 6.6186661623e+00 -6.5050190020e-04 1.7250334538e+00 -2.9878455867e+00 1.7250334538e+00 2.9878455867e+00 
50200 6.6186660335e+00 -6.4322314208e-04 1.7250523086e+00 -2.9878782442e+00 1.7250523086e+00 2.9878782442e+00 
50300 6.6186658997e+00 -6.3542951140e-04 1.7250709522e+00 -2.9879105359e+00 1.7250709522e+00 2.9879105359e+00 
50400 6.6186657616e+00 -6.2713784296e-04 1.7250893697e+00 -2.9879424360e+00 1.7250893697e+00 2.9879424360e+00 
50500 6.6186656202e+00 -6.1836511857e-04 1.7251075467e+00 -2.9879739195e+00 1.7251075467e+00 2.9879739195e+00 
50600 6.6186654763e+00 -6.0912844983e-04 1.7251254693e+00 -2.9880049622e+00 1.7251254693e+00 2.9880049622e+00 
50700 6.6186653308e+00 -5.9944506101e-04 1.7251431239e+00 -2.9880355409e+00 1.7251431239e+00 2.9880355409e+00 
50800 6.6186651845e+00 -5.8933227222e-04 1.7251604977e+00 -2.9880656333e+00 1.7251604977e+00 2.9880656333e+00 
50900 6.6186650382e+00 -5.7880748275e-04 1.7251775783e+00 -2.9880952176e+00 1.7251775783e+00 2.9880952176e+00 
51000 6.6186648925e+00 -5.6788815468e-04 1.7251943536e+00 -2.9881242733e+00 1.7251943536e+00 2.9881242733e+00 
51100 6.6186647484e+00 -5.5659179664e-04 1.7252108123e+00 -2.9881527806e+00 1.7252108123e+00 2.9881527806e+00 
51200 6.6186646063e+00 -5.4493594786e-04 1.7252269434e+00 -2.9881807206e+00 1.7252269434e+00 2.9881807206e+00 
51300 6.6186644670e+00 -5.3293816250e-04 1.7252427366e+00 -2.9882080752e+00 1.7252427366e+00 2.9882080752e+00 
51400 6.6186643311e+00 -5.2061599411e-04 1.7252581820e+00 -2.9882348273e+00 1.7252581820e+00 2.9882348273e+00 
51500 6.6186641992e+00 -5.0798698047e-04 1.7252732700e+00 -2.9882609606e+00 1.7252732700e+00 2.9882609606e+00 
51600 6.6186640718e+00 -4.9506862862e-04 1.7252879920e+00 -2.9882864598e+00 1.7252879920e+00 2.9882864598e+00 
51700 6.6186639493e+00 -4.8187840014e-04 1.7253023394e+00 -2.9883113103e+00 1.7253023394e+00 2.9883113103e+00 
51800 6.6186638323e+00 -4.6843369679e-04 1.7253163045e+00 -2.9883354985e+00 1.7253163045e+00 2.9883354985e+00 
51900 6.6186637212e+00 -4.5475184632e-04 1.7253298798e+00 -2.9883590116e+00 1.7253298798e+00 2.9883590116e+00 
52000 6.6186636163e+00 -4.4085008864e-04 1.7253430585e+00 -2.9883818378e+00 1.7253430585e+00 2.9883818378e+00 
52100 6.6186635179e+00 -4.2674556225e-04 1.7253558343e+00 -2.9884039661e+00 1.7253558343e+00 2.9884039661e+00 
52200 6.6186634265e+00 -4.1245529094e-04 1.7253682012e+00 -2.9884253862e+00 1.7253682012e+00 2.9884253862e+00 
52300 6.6186633422e+00 -3.9799617085e-04 1.7253801538e+00 -2.9884460888e+00 1.7253801538e+00 2.9884460888e+00 
52400 6.6186632653e+00 -3.8338495776e-04 1.7253916874e+00 -2.9884660656e+00 1.7253916874e+00 2.9884660656e+00 
52500 6.6186631959e+00 -3.6863825477e-04 1.7254027975e+00 -2.9884853088e+00 1.7254027975e+00 2.9884853088e+00 
52600 6.6186631342e+00 -3.5377250020e-04 1.7254134802e+00 -2.9885038118e+00 1.7254134802e+00 2.9885038118e+00 
52700 6.6186630803e+00 -3.3880395587e-04 1.7254237320e+00 -2.9885215685e+00 1.7254237320e+00 2.9885215685e+00 
52800 6.6186630343e+00 -3.2374869572e-04 1.7254335500e+00 -2.9885385738e+00 1.7254335500e+00 2.9885385738e+00 
52900 6.6186629962e+00 -3.0862259467e-04 1.7254429317e+00 -2.9885548233e+00 1.7254429317e+00 2.9885548233e+00 
53000 6.6186629660e+00 -2.9344131789e-04 1.7254518750e+00 -2.9885703135e+00 1.7254518750e+00 2.9885703135e+00 
53100 6.6186629437e+00 -2.7822031038e-04 1.7254603783e+00 -2.9885850417e+00 1.7254603783e+00 2.9885850417e+00 
53200 6.6186629292e+00 -2.6297478685e-04 1.7254684405e+00 -2.9885990059e+00 1.7254684405e+00 2.9885990059e+00 
53300 6.6186629225e+00 -2.4771972204e-04 1.7254760609e+00 -2.9886122048e+00 1.7254760609e+00 2.9886122048e+00 
53400 6.6186629234e+00 -2.3246984122e-04 1.7254832392e+00 -2.9886246380e+00 1.7254832392e+00 2.9886246380e+00 
53500 6.6186629318e+00 -2.1723961121e-04 1.7254899756e+00 -2.9886363057e+00 1.7254899756e+00 2.9886363057e+00 
53600 6.6186629475e+00 -2.0204323166e-04 1.7254962706e+00 -2.9886472090e+00 1.7254962706e+00 2.9886472090e+00 
53700 6.6186629704e+00 -1.8689462668e-04 1.7255021253e+00 -2.9886573495e+00 1.7255021253e+00 2.9886573495e+00 
53800 6.6186630001e+00 -1.7180743682e-04 1.7255075409e+00 -2.9886667298e+00 1.7255075409e+00 2.9886667298e+00 
53900 6.6186630366e+00 -1.5679501149e-04 1.7255125194e+00 -2.9886753527e+00 1.7255125194e+00 2.9886753527e+00 
54000 6.6186630795e+00 -1.4187040161e-04 1.7255170628e+00 -2.9886832222e+00 1.7255170628e+00 2.9886832222e+00 
54100 6.6186631285e+00 -1.2704635275e-04 1.7255211738e+00 -2.9886903425e+00 1.7255211738e+00 2.9886903425e+00 
54200 6.6186631834e+00 -1.1233529850e-04 1.7255248552e+00 -2.9886967189e+00 1.7255248552e+00 2.9886967189e+00 
54300 6.6186632439e+00 -9.7749354345e-05 1.7255281103e+00 -2.9887023569e+00 1.7255281103e+00 2.9887023569e+00 
54400 6.6186633097e+00 -8.3300311778e-05 1.7255309427e+00 -2.9887072629e+00 1.7255309427e+00 2.9887072629e+00 
54500 6.6186633804e+00 -6.8999632862e-05 1.7255333565e+00 -2.9887114436e+00 1.7255333565e+00 2.9887114436e+00 
54600 6.6186634558e+00 -5.7466737878e-05 1.7255333565e+00 -2.9887114436e+00 1.7255333565e+00 2.9887114436e+00 
54700 6.6186635355e+00 -4.5591443451e-05 1.7255333565e+00 -2.9887114436e+00 1.7255333565e+00 2.9887114436e+00 
54800 6.6186636189e+00 -3.3386834462e-05 1.7255333565e+00 -2.9887114436e+00 1.7255333565e+00 2.9887114436e+00 
54900 6.6186637059e+00 -2.0865904269e-05 1.7255333565e+00 -2.9887114436e+00 1.7255333565e+00 2.9887114436e+00 
55000 6.6186637961e+00 -8.0415545531e-06 1.7255333565e+00 -2.9887114436e+00 1.7255333565e+00 2.9887114436e+00 
55100 6.6186638892e+00 5.0734049912e-06 1.7255333565e+00 -2.9887114436e+00 1.7255333565e+00 2.9887114436e+00 
55200 6.6186639849e+00 1.8466257131e-05 1.7255333565e+00 -2.9887114436e+00 1.7255333565e+00 2.9887114436e+00 
55300 6.6186640828e+00 3.2124377741e-05 1.7255333565e+00 -2.9887114436e+00 1.7255333565e+00 2.9887114436e+00 
55400 6.6186641825e+00 4.6035236590e-05 1.7255333565e+00 -2.9887114436e+00 1.7255333565e+00 2.9887114436e+00 
55500 6.6186642839e+00 6.0186398312e-05 1.7255333565e+00 -2.9887114436e+00 1.7255333565e+00 2.9887114436e+00 
55600 6.6186643866e+00 7.4565523502e-05 1.7255333565e+00 -2.9887114436e+00 1.7255333565e+00 2.9887114436e+00 
55700 6.6186644899e+00 8.6341335790e-05 1.7255311958e+00 -2.9887077013e+00 1.7255311958e+00 2.9887077013e+00 
55800 6.6186645938e+00 9.7851855766e-05 1.7255286940e+00 -2.9887033679e+00 1.7255286940e+00 2.9887033679e+00 
55900 6.6186646979e+00 1.0909057615e-04 1.7255258586e+00 -2.9886984568e+00 1.7255258586e+00 2.9886984568e+00 
56000 6.6186648018e+00 1.2005135741e-04 1.7255226975e+00 -2.9886929816e+00 1.7255226975e+00 2.9886929816e+00 
56100 6.6186649054e+00 1.3072842759e-04 1.7255192188e+00 -2.9886869564e+00 1.7255192188e+00 2.9886869564e+00 
56200 6.6186650082e+00 1.4111638180e-04 1.7255154307e+00 -2.9886803952e+00 1.7255154307e+00 2.9886803952e+00 
56300 6.6186651101e+00 1.5121018133e-04 1.7255113416e+00 -2.9886733127e+00 1.7255113416e+00 2.9886733127e+00 
56400 6.6186652108e+00 1.6100515251e-04 1.7255069600e+00 -2.9886657235e+00 1.7255069600e+00 2.9886657235e+00 
56500 6.6186653100e+00 1.7049698520e-04 1.7255022945e+00 -2.9886576427e+00 1.7255022945e+00 2.9886576427e+00 
56600 6.6186654075e+00 1.7968173092e-04 1.7254973540e+00 -2.9886490855e+00 1.7254973540e+00 2.9886490855e+00 
56700 6.6186655030e+00 1.8855580080e-04 1.7254921474e+00 -2.9886400673e+00 1.7254921474e+00 2.9886400673e+00 
56800 6.6186655964e+00 1.9711596305e-04 1.7254866836e+00 -2.9886306037e+00 1.7254866836e+00 2.9886306037e+00 
56900 6.6186656875e+00 2.0535934026e-04 1.7254809717e+00 -2.9886207104e+00 1.7254809717e+00 2.9886207104e+00 
57000 6.6186657761e+00 2.1328340634e-04 1.7254750209e+00 -2.9886104034e+00 1.7254750209e+00 2.9886104034e+00 
57100 6.6186658619e+00 2.2088598323e-04 1.7254688405e+00 -2.9885996985e+00 1.7254688405e+00 2.9885996985e+00 
57200 6.6186659450e+00 2.2816523722e-04 1.7254624397e+00 -2.9885886121e+00 1.7254624397e+00 2.9885886121e+00 
57300 6.6186660250e+00 2.3511967514e-04 1.7254558280e+00 -2.9885771603e+00 1.7254558280e+00 2.9885771603e+00 
57400 6.6186661020e+00 2.4174814014e-04 1.7254490147e+00 -2.9885653594e+00 1.7254490147e+00 2.9885653594e+00 
57500 6.6186661758e+00 2.4804980733e-04 1.7254420094e+00 -2.9885532258e+00 1.7254420094e+00 2.9885532258e+00 
57600 6.6186662462e+00 2.5402417908e-04 1.7254348214e+00 -2.9885407758e+00 1.7254348214e+00 2.9885407758e+00 
57700 6.6186663134e+00 2.5967108013e-04 1.7254274602e+00 -2.9885280259e+00 1.7254274602e+00 2.9885280259e+00 
57800 6.6186663771e+00 2.6499065245e-04 1.7254199354e+00 -2.9885149925e+00 1.7254199354e+00 2.9885149925e+00 
57900 6.6186664373e+00 2.6998334982e-04 1.7254122564e+00 -2.9885016920e+00 1.7254122564e+00 2.9885016920e+00 
58000 6.6186664940e+00 2.7464993232e-04 1.7254044326e+00 -2.9884881409e+00 1.7254044326e+00 2.9884881409e+00 
58100 6.6186665472e+00 2.7899146046e-04 1.7253964737e+00 -2.9884743556e+00 1.7253964737e+00 2.9884743556e+00 
58200 6.6186665969e+00 2.8300928918e-04 1.7253883888e+00 -2.9884603522e+00 1.7253883888e+00 2.9884603522e+00 
58300 6.6186666430e+00 2.8670506168e-04 1.7253801875e+00 -2.9884461471e+00 1.7253801875e+00 2.9884461471e+00 
58400 6.6186666857e+00 2.9008070305e-04 1.7253718790e+00 -2.9884317564e+00 1.7253718790e+00 2.9884317564e+00 
58500 6.6186667248e+00 2.9313841363e-04 1.7253634727e+00 -2.9884171963e+00 1.7253634727e+00 2.9884171963e+00 
58600 6.6186667605e+00 2.9588066237e-04 1.7253549778e+00 -2.9884024826e+00 1.7253549778e+00 2.9884024826e+00 
58700 6.6186667928e+00 2.9831017991e-04 1.7253464033e+00 -2.9883876311e+00 1.7253464033e+00 2.9883876311e+00 
58800 6.6186668217e+00 3.0042995154e-04 1.7253377583e+00 -2.9883726577e+00 1.7253377583e+00 2.9883726577e+00 
58900 6.6186668474e+00 3.0224321005e-04 1.7253290519e+00 -2.9883575777e+00 1.7253290519e+00 2.9883575777e+00 
59000 6.6186668700e+00 3.0375342843e-04 1.7253202929e+00 -2.9883424067e+00 1.7253202929e+00 2.9883424067e+00 
59100 6.6186668894e+00 3.0496431244e-04 1.7253114901e+00 -2.9883271598e+00 1.7253114901e+00 2.9883271598e+00 
59200 6.6186669058e+00 3.0587979307e-04 1.7253026522e+00 -2.9883118520e+00 1.7253026522e+00 2.9883118520e+00 
59300 6.6186669193e+00 3.0650401897e-04 1.7252937877e+00 -2.9882964982e+00 1.7252937877e+00 2.9882964982e+00 
59400 6.6186669300e+00 3.0684134862e-04 1.7252849050e+00 -2.9882811130e+00 1.7252849050e+00 2.9882811130e+00 
59500 6.6186669381e+00 3.0689634264e-04 1.7252760126e+00 -2.9882657108e+00 1.7252760126e+00 2.9882657108e+00 
59600 6.6186669436e+00 3.0667375582e-04 1.7252671184e+00 -2.9882503058e+00 1.7252671184e+00 2.9882503058e+00 
59700 6.6186669466e+00 3.0617852923e-04 1.7252582307e+00 -2.9882349118e+00 1.7252582307e+00 2.9882349118e+00 
59800 6.6186669474e+00 3.0541578222e-04 1.7252493573e+00 -2.9882195426e+00 1.7252493573e+00 2.9882195426e+00 
59900 6.6186669460e+00 3.0439080434e-04 1.7252405060e+00 -2.9882042116e+00 1.7252405060e+00 2.9882042116e+00 
60000 6.6186669425e+00 3.0310904730e-04 1.7252316843e+00 -2.9881889320e+00 1.7252316843e+00 2.9881889320e+00 
60100 6.6186669371e+00 3.0157611686e-04 1.7252228997e+00 -2.9881737167e+00 1.7252228997e+00 2.9881737167e+00 
60200 6.6186669300e+00 2.9979776469e-04 1.7252141595e+00 -2.9881585782e+00 1.7252141595e+00 2.9881585782e+00 
60300 6.6186669212e+00 2.9777988022e-04 1.7252054708e+00 -2.9881435289e+00 1.7252054708e+00 2.9881435289e+00 
60400 6.6186669109e+00 2.9552848254e-04 1.7251968405e+00 -2.9881285809e+00 1.7251968405e+00 2.9881285809e+00 
60500 6.6186668993e+00 2.9304971228e-04 1.7251882755e+00 -2.9881137458e+00 1.7251882755e+00 2.9881137458e+00 
60600 6.6186668865e+00 2.9034982342e-04 1.7251797822e+00 -2.9880990350e+00 1.7251797822e+00 2.9880990350e+00 
60700 6.6186668726e+00 2.8743517530e-04 1.7251713672e+00 -2.9880844597e+00 1.7251713672e+00 2.9880844597e+00 
60800 6.6186668578e+00 2.8431222450e-04 1.7251630365e+00 -2.9880700306e+00 1.7251630365e+00 2.9880700306e+00 
60900 6.6186668421e+00 2.8098751684e-04 1.7251547964e+00 -2.9880557583e+00 1.7251547964e+00 2.9880557583e+00 
61000 6.6186668258e+00 2.7746767940e-04 1.7251466526e+00 -2.9880416528e+00 1.7251466526e+00 2.9880416528e+00 
61100 6.6186668089e+00 2.7375941263e-04 1.7251386107e+00 -2.9880277239e+00 1.7251386107e+00 2.9880277239e+00 
61200 6.6186667916e+00 2.6986948249e-04 1.7251306763e+00 -2.9880139811e+00 1.7251306763e+00 2.9880139811e+00 
61300 6.6186667741e+00 2.6580471266e-04 1.7251228546e+00 -2.9880004335e+00 1.7251228546e+00 2.9880004335e+00 
61400 6.6186667563e+00 2.6157197683e-04 1.7251151507e+00 -2.9879870899e+00 1.7251151507e+00 2.9879870899e+00 
61500 6.6186667385e+00 2.5717819110e-04 1.7251075694e+00 -2.9879739587e+00 1.7251075694e+00 2.9879739587e+00 
61600 6.6186667207e+00 2.5263030643e-04 1.7251001154e+00 -2.9879610480e+00 1.7251001154e+00 2.9879610480e+00 
61700 6.6186667030e+00 2.4793530123e-04 1.7250927932e+00 -2.9879483656e+00 1.7250927932e+00 2.9879483656e+00 
61800 6.6186666857e+00 2.4310017399e-04 1.7250856071e+00 -2.9879359189e+00 1.7250856071e+00 2.9879359189e+00 
61900 6.6186666686e+00 2.3813193609e-04 1.7250785611e+00 -2.9879237148e+00 1.7250785611e+00 2.9879237148e+00 
62000 6.6186666520e+00 2.3303760469e-04 1.7250716590e+00 -2.9879117601e+00 1.7250716590e+00 2.9879117601e+00 
62100 6.6186666359e+00 2.2782419570e-04 1.7250649046e+00 -2.9879000611e+00 1.7250649046e+00 2.9879000611e+00 
62200 6.6186666204e+00 2.2249871698e-04 1.7250583012e+00 -2.9878886238e+00 1.7250583012e+00 2.9878886238e+00 
62300 6.6186666056e+00 2.1706816156e-04 1.7250518522e+00 -2.9878774537e+00 1.7250518522e+00 2.9878774537e+00 
62400 6.6186665915e+00 2.1153950104e-04 1.7250455606e+00 -2.9878665563e+00 1.7250455606e+00 2.9878665563e+00 
62500 6.6186665782e+00 2.0591967914e-04 1.7250394292e+00 -2.9878559364e+00 1.7250394292e+00 2.9878559364e+00 
62600 6.6186665657e+00 2.0021560542e-04 1.7250334606e+00 -2.9878455985e+00 1.7250334606e+00 2.9878455985e+00 
62700 6.6186665542e+00 1.9443414902e-04 1.7250276574e+00 -2.9878355470e+00 1.7250276574e+00 2.9878355470e+00 
62800 6.6186665436e+00 1.8858213273e-04 1.7250220217e+00 -2.9878257858e+00 1.7250220217e+00 2.9878257858e+00 
62900 6.6186665340e+00 1.8266632708e-04 1.7250165556e+00 -2.9878163182e+00 1.7250165556e+00 2.9878163182e+00 
63000 6.6186665254e+00 1.7669344464e-04 1.7250112610e+00 -2.9878071477e+00 1.7250112610e+00 2.9878071477e+00 
63100 6.6186665179e+00 1.7067013447e-04 1.7250061395e+00 -2.9877982770e+00 1.7250061395e+00 2.9877982770e+00 
63200 6.6186665114e+00 1.6460297677e-04 1.7250011926e+00 -2.9877897086e+00 1.7250011926e+00 2.9877897086e+00 
63300 6.6186665061e+00 1.5849847762e-04 1.7249964215e+00 -2.9877814448e+00 1.7249964215e+00 2.9877814448e+00 
63400 6.6186665018e+00 1.5236306396e-04 1.7249918273e+00 -2.9877734875e+00 1.7249918273e+00 2.9877734875e+00 
63500 6.6186664986e+00 1.4620307871e-04 1.7249874110e+00 -2.9877658382e+00 1.7249874110e+00 2.9877658382e+00 
63600 6.6186664966e+00 1.4002477605e-04 1.7249831732e+00 -2.9877584981e+00 1.7249831732e+00 2.9877584981e+00 
63700 6.6186664956e+00 1.3383431695e-04 1.7249791144e+00 -2.9877514682e+00 1.7249791144e+00 2.9877514682e+00 
63800 6.6186664958e+00 1.2763776474e-04 1.7249752351e+00 -2.9877447490e+00 1.7249752351e+00 2.9877447490e+00 
63900 6.6186664970e+00 1.2144108096e-04 1.7249715354e+00 -2.9877383410e+00 1.7249715354e+00 2.9877383410e+00 
64000 6.6186664993e+00 1.1525012141e-04 1.7249680153e+00 -2.9877322440e+00 1.7249680153e+00 2.9877322440e+00 
64100 6.6186665027e+00 1.0907063227e-04 1.7249646747e+00 -2.9877264578e+00 1.7249646747e+00 2.9877264578e+00 
64200 6.6186665071e+00 1.0290824648e-04 1.7249615132e+00 -2.9877209819e+00 1.7249615132e+00 2.9877209819e+00 
64300 6.6186665125e+00 9.6768480284e-05 1.7249585302e+00 -2.9877158153e+00 1.7249585302e+00 2.9877158153e+00 
64400 6.6186665189e+00 9.0656729967e-05 1.7249557253e+00 -2.9877109570e+00 1.7249557253e+00 2.9877109570e+00 
64500 6.6186665262e+00 8.4578268719e-05 1.7249530975e+00 -2.9877064055e+00 1.7249530975e+00 2.9877064055e+00 
64600 6.6186665344e+00 7.8538243740e-05 1.7249506459e+00 -2.9877021592e+00 1.7249506459e+00 2.9877021592e+00 
64700 6.6186665435e+00 7.2541673488e-05 1.7249483694e+00 -2.9876982162e+00 1.7249483694e+00 2.9876982162e+00 
64800 6.6186665535e+00 6.6593445113e-05 1.7249462666e+00 -2.9876945741e+00 1.7249462666e+00 2.9876945741e+00 
64900 6.6186665643e+00 6.3219075127e-05 1.7249462666e+00 -2.9876945741e+00 1.7249462666e+00 2.9876945741e+00 
65000 6.6186665759e+00 5.9700385130e-05 1.7249462666e+00 -2.9876945741e+00 1.7249462666e+00 2.9876945741e+00 
65100 6.6186665881e+00 5.6042837277e-05 1.7249462666e+00 -2.9876945741e+00 1.7249462666e+00 2.9876945741e+00 
65200 6.6186666009e+00 5.2251834244e-05 1.7249462666e+00 -2.9876945741e+00 1.7249462666e+00 2.9876945741e+00 
65300 6.6186666143e+00 4.8332719837e-05 1.7249462666e+00 -2.9876945741e+00 1.7249462666e+00 2.9876945741e+00 
65400 6.6186666282e+00 4.4290779530e-05 1.7249462666e+00 -2.9876945741e+00 1.7249462666e+00 2.9876945741e+00 
65500 6.6186666426e+00 4.0131240959e-05 1.7249462666e+00 -2.9876945741e+00 1.7249462666e+00 2.9876945741e+00 
65600 6.6186666574e+00 3.5859274377e-05 1.7249462666e+00 -2.9876945741e+00 1.7249462666e+00 2.9876945741e+00 
65700 6.6186666726e+00 3.1479993058e-05 1.7249462666e+00 -2.9876945741e+00 1.7249462666e+00 2.9876945741e+00 
65800 6.6186666882e+00 2.6998453648e-05 1.7249462666e+00 -2.9876945741e+00 1.7249462666e+00 2.9876945741e+00 
65900 6.6186667040e+00 2.2419656468e-05 1.7249462666e+00 -2.9876945741e+00 1.7249462666e+00 2.9876945741e+00 
66000 6.6186667201e+00 1.7748545776e-05 1.7249462666e+00 -2.9876945741e+00 1.7249462666e+00 2.9876945741e+00 
66100 6.6186667364e+00 1.2990009964e-05 1.7249462666e+00 -2.9876945741e+00 1.7249462666e+00 2.9876945741e+00 
66200 6.6186667528e+00 8.1488817196e-06 1.7249462666e+00 -2.9876945741e+00 1.7249462666e+00 2.9876945741e+00 
66300 6.6186667694e+00 3.2299381428e-06 1.7249462666e+00 -2.9876945741e+00 1.7249462666e+00 2.9876945741e+00 
66400 6.6186667860e+00 -1.7620992049e-06 1.7249462666e+00 -2.9876945741e+00 1.7249462666e+00 2.9876945741e+00 
66500 6.6186668027e+00 -6.8225642778e-06 1.7249462666e+00 -2.9876945741e+00 1.7249462666e+00 2.9876945741e+00 
66600 6.6186668193e+00 -1.1946846578e-05 1.7249462666e+00 -2.9876945741e+00 1.7249462666e+00 2.9876945741e+00 
66700 6.6186668359e+00 -1.7130391230e-05 1.7249462666e+00 -2.9876945741e+00 1.7249462666e+00 2.9876945741e+00 
66800 6.6186668524e+00 -2.2368699110e-05 1.7249462666e+00 -2.9876945741e+00 1.7249462666e+00 2.9876945741e+00 
66900 6.6186668688e+00 -2.7657326994e-05 1.7249462666e+00 -2.9876945741e+00 1.7249462666e+00 2.9876945741e+00 
67000 6.6186668850e+00 -3.2991887773e-05 1.7249462666e+00 -2.9876945741e+00 1.7249462666e+00 2.9876945741e+00 
67100 6.6186669010e+00 -3.8368050692e-05 1.7249462666e+00 -2.9876945741e+00 1.7249462666e+00 2.9876945741e+00 
67200 6.6186669168e+00 -4.3781541639e-05 1.7249462666e+00 -2.9876945741e+00 1.7249462666e+00 2.9876945741e+00 
67300 6.6186669323e+00 -4.9228143448e-05 1.7249462666e+00 -2.9876945741e+00 1.7249462666e+00 2.9876945741e+00 
67400 6.6186669476e+00 -5.4703696267e-05 1.7249462666e+00 -2.9876945741e+00 1.7249462666e+00 2.9876945741e+00 
67500 6.6186669625e+00 -6.0204097941e-05 1.7249462666e+00 -2.9876945741e+00 1.7249462666e+00 2.9876945741e+00 
67600 6.6186669771e+00 -6.5725304430e-05 1.7249462666e+00 -2.9876945741e+00 1.7249462666e+00 2.9876945741e+00 
67700 6.6186669913e+00 -7.1263330250e-05 1.7249462666e+00 -2.9876945741e+00 1.7249462666e+00 2.9876945741e+00 
67800 6.6186670050e+00 -7.4117031819e-05 1.7249483323e+00 -2.9876981520e+00 1.7249483323e+00 2.9876981520e+00 
67900 6.6186670182e+00 -7.6849165040e-05 1.7249504807e+00 -2.9877018731e+00 1.7249504807e+00 2.9877018731e+00 
68000 6.6186670310e+00 -7.9458907651e-05 1.7249527083e+00 -2.9877057314e+00 1.7249527083e+00 2.9877057314e+00 
68100 6.6186670433e+00 -8.1945590993e-05 1.7249550115e+00 -2.9877097207e+00 1.7249550115e+00 2.9877097207e+00 
68200 6.6186670551e+00 -8.4308696942e-05 1.7249573868e+00 -2.9877138348e+00 1.7249573868e+00 2.9877138348e+00 
68300 6.6186670664e+00 -8.6547854794e-05 1.7249598306e+00 -2.9877180676e+00 1.7249598306e+00 2.9877180676e+00 
68400 6.6186670773e+00 -8.8662838098e-05 1.7249623393e+00 -2.9877224128e+00 1.7249623393e+00 2.9877224128e+00 
68500 6.6186670875e+00 -9.0653561461e-05 1.7249649093e+00 -2.9877268641e+00 1.7249649093e+00 2.9877268641e+00 
68600 6.6186670973e+00 -9.2520077277e-05 1.7249675370e+00 -2.9877314154e+00 1.7249675370e+00 2.9877314154e+00 
68700 6.6186671066e+00 -9.4262572440e-05 1.7249702187e+00 -2.9877360604e+00 1.7249702187e+00 2.9877360604e+00 
68800 6.6186671153e+00 -9.5881364998e-05 1.7249729510e+00 -2.9877407929e+00 1.7249729510e+00 2.9877407929e+00 
68900 6.6186671235e+00 -9.7376900788e-05 1.7249757303e+00 -2.9877456066e+00 1.7249757303e+00 2.9877456066e+00 
69000 6.6186671312e+00 -9.8749750022e-05 1.7249785528e+00 -2.9877504954e+00 1.7249785528e+00 2.9877504954e+00 
69100 6.6186671383e+00 -1.0000060386e-04 1.7249814152e+00 -2.9877554532e+00 1.7249814152e+00 2.9877554532e+00 
69200 6.6186671450e+00 -1.0113027092e-04 1.7249843138e+00 -2.9877604737e+00 1.7249843138e+00 2.9877604737e+00 
69300 6.6186671511e+00 -1.0213967381e-04 1.7249872451e+00 -2.9877655509e+00 1.7249872451e+00 2.9877655509e+00 
69400 6.6186671567e+00 -1.0302984561e-04 1.7249902057e+00 -2.9877706788e+00 1.7249902057e+00 2.9877706788e+00 
69500 6.6186671619e+00 -1.0380192631e-04 1.7249931921e+00 -2.9877758514e+00 1.7249931921e+00 2.9877758514e+00 
69600 6.6186671666e+00 -1.0445715928e-04 1.7249962009e+00 -2.9877810627e+00 1.7249962009e+00 2.9877810627e+00 
69700 6.6186671708e+00 -1.0499688774e-04 1.7249992286e+00 -2.9877863070e+00 1.7249992286e+00 2.9877863070e+00 
69800 6.6186671745e+00 -1.0542255109e-04 1.7250022720e+00 -2.9877915783e+00 1.7250022720e+00 2.9877915783e+00 
69900 6.6186671779e+00 -1.0573568144e-04 1.7250053277e+00 -2.9877968709e+00 1.7250053277e+00 2.9877968709e+00 
70000 6.6186671808e+00 -1.0593789993e-04 1.7250083925e+00 -2.9878021793e+00 1.7250083925e+00 2.9878021793e+00 
70100 6.6186671833e+00 -1.0603091317e-04 1.7250114632e+00 -2.9878074978e+00 1.7250114632e+00 2.9878074978e+00 
70200 6.6186671854e+00 -1.0601650966e-04 1.7250145365e+00 -2.9878128210e+00 1.7250145365e+00 2.9878128210e+00 
70300 6.6186671871e+00 -1.0589655620e-04 1.7250176094e+00 -2.9878181435e+00 1.7250176094e+00 2.9878181435e+00 
70400 6.6186671885e+00 -1.0567299427e-04 1.7250206789e+00 -2.9878234599e+00 1.7250206789e+00 2.9878234599e+00 
70500 6.6186671896e+00 -1.0534783652e-04 1.7250237418e+00 -2.9878287651e+00 1.7250237418e+00 2.9878287651e+00 
70600 6.6186671903e+00 -1.0492316313e-04 1.7250267953e+00 -2.9878340539e+00 1.7250267953e+00 2.9878340539e+00 
70700 6.6186671908e+00 -1.0440111836e-04 1.7250298365e+00 -2.9878393214e+00 1.7250298365e+00 2.9878393214e+00 
70800 6.6186671909e+00 -1.0378390691e-04 1.7250328626e+00 -2.9878445627e+00 1.7250328626e+00 2.9878445627e+00 
70900 6.6186671908e+00 -1.0307379048e-04 1.7250358708e+00 -2.9878497730e+00 1.7250358708e+00 2.9878497730e+00 
71000 6.6186671905e+00 -1.0227308426e-04 1.7250388584e+00 -2.9878549477e+00 1.7250388584e+00 2.9878549477e+00 
71100 6.6186671900e+00 -1.0138415346e-04 1.7250418227e+00 -2.9878600821e+00 1.7250418227e+00 2.9878600821e+00 
71200 6.6186671893e+00 -1.0040940987e-04 1.7250447613e+00 -2.9878651719e+00 1.7250447613e+00 2.9878651719e+00 
71300 6.6186671884e+00 -9.9351308456e-05 1.7250476717e+00 -2.9878702128e+00 1.7250476717e+00 2.9878702128e+00 
71400 6.6186671873e+00 -9.8212343961e-05 1.7250505513e+00 -2.9878752005e+00 1.7250505513e+00 2.9878752005e+00 
71500 6.6186671862e+00 -9.6995047589e-05 1.7250533980e+00 -2.9878801311e+00 1.7250533980e+00 2.9878801311e+00 
71600 6.6186671849e+00 -9.5701983670e-05 1.7250562094e+00 -2.9878850005e+00 1.7250562094e+00 2.9878850005e+00 
71700 6.6186671835e+00 -9.4335746393e-05 1.7250589832e+00 -2.9878898050e+00 1.7250589832e+00 2.9878898050e+00 
71800 6.6186671820e+00 -9.2898956582e-05 1.7250617175e+00 -2.9878945409e+00 1.7250617175e+00 2.9878945409e+00 
71900 6.6186671805e+00 -9.1394258497e-05 1.7250644101e+00 -2.9878992047e+00 1.7250644101e+00 2.9878992047e+00 
72000 6.6186671789e+00 -8.9824316687e-05 1.7250670591e+00 -2.9879037929e+00 1.7250670591e+00 2.9879037929e+00 
72100 6.6186671773e+00 -8.8191812901e-05 1.7250696627e+00 -2.9879083023e+00 1.7250696627e+00 2.9879083023e+00 
72200 6.6186671757e+00 -8.6499443012e-05 1.7250722188e+00 -2.9879127297e+00 1.7250722188e+00 2.9879127297e+00 
72300 6.6186671741e+00 -8.4749914039e-05 1.7250747260e+00 -2.9879170722e+00 1.7250747260e+00 2.9879170722e+00 
72400 6.6186671725e+00 -8.2945941181e-05 1.7250771824e+00 -2.9879213268e+00 1.7250771824e+00 2.9879213268e+00 
72500 6.6186671710e+00 -8.1090244914e-05 1.7250795865e+00 -2.9879254909e+00 1.7250795865e+00 2.9879254909e+00 
72600 6.6186671695e+00 -7.9185548148e-05 1.7250819368e+00 -2.9879295618e+00 1.7250819368e+00 2.9879295618e+00 
72700 6.6186671680e+00 -7.7234573449e-05 1.7250842320e+00 -2.9879335371e+00 1.7250842320e+00 2.9879335371e+00 
72800 6.6186671666e+00 -7.5240040283e-05 1.7250864705e+00 -2.9879374144e+00 1.7250864705e+00 2.9879374144e+00 
72900 6.6186671654e+00 -7.3204662357e-05 1.7250886513e+00 -2.9879411916e+00 1.7250886513e+00 2.9879411916e+00 
73000 6.6186671642e+00 -7.1131145015e-05 1.7250907731e+00 -2.9879448666e+00 1.7250907731e+00 2.9879448666e+00 
73100 6.6186671631e+00 -6.9022182646e-05 1.7250928347e+00 -2.9879484375e+00 1.7250928347e+00 2.9879484375e+00 
73200 6.6186671622e+00 -6.9492030104e-05 1.7250928347e+00 -2.9879484375e+00 1.7250928347e+00 2.9879484375e+00 
73300 6.6186671615e+00 -6.9872632942e-05 1.7250928347e+00 -2.9879484375e+00 1.7250928347e+00 2.9879484375e+00 
73400 6.6186671609e+00 -7.0165510649e-05 1.7250928347e+00 -2.9879484375e+00 1.7250928347e+00 2.9879484375e+00 
73500 6.6186671604e+00 -7.0372181137e-05 1.7250928347e+00 -2.9879484375e+00 1.7250928347e+00 2.9879484375e+00 
73600 6.6186671601e+00 -7.0494161145e-05 1.7250928347e+00 -2.9879484375e+00 1.7250928347e+00 2.9879484375e+00 
73700 6.6186671598e+00 -7.0532966618e-05 1.7250928347e+00 -2.9879484375e+00 1.7250928347e+00 2.9879484375e+00 
73800 6.6186671597e+00 -7.0490113079e-05 1.7250928347e+00 -2.9879484375e+00 1.7250928347e+00 2.9879484375e+00 
73900 6.6186671598e+00 -7.0367115969e-05 1.7250928347e+00 -2.9879484375e+00 1.7250928347e+00 2.9879484375e+00 
74000 6.6186671599e+00 -7.0165490981e-05 1.7250928347e+00 -2.9879484375e+00 1.7250928347e+00 2.9879484375e+00 
74100 6.6186671602e+00 -6.9886754358e-05 1.7250928347e+00 -2.9879484375e+00 1.7250928347e+00 2.9879484375e+00 
74200 6.6186671607e+00 -6.9532423179e-05 1.7250928347e+00 -2.9879484375e+00 1.7250928347e+00 2.9879484375e+00 
74300 6.6186671613e+00 -6.9104015612e-05 1.7250928347e+00 -2.9879484375e+00 1.7250928347e+00 2.9879484375e+00 
74400 6.6186671620e+00 -6.8603051151e-05 1.7250928347e+00 -2.9879484375e+00 1.7250928347e+00 2.9879484375e+00 
74500 6.6186671628e+00 -6.8031050815e-05 1.7250928347e+00 -2.9879484375e+00 1.7250928347e+00 2.9879484375e+00 
74600 6.6186671638e+00 -6.7389537334e-05 1.7250928347e+00 -2.9879484375e+00 1.7250928347e+00 2.9879484375e+00 
74700 6.6186671649e+00 -6.6680035300e-05 1.7250928347e+00 -2.9879484375e+00 1.7250928347e+00 2.9879484375e+00 
74800 6.6186671661e+00 -6.5904071281e-05 1.7250928347e+00 -2.9879484375e+00 1.7250928347e+00 2.9879484375e+00 
74900 6.6186671675e+00 -6.5063173926e-05 1.7250928347e+00 -2.9879484375e+00 1.7250928347e+00 2.9879484375e+00 
75000 6.6186671690e+00 -6.4158874021e-05 1.7250928347e+00 -2.9879484375e+00 1.7250928347e+00 2.9879484375e+00 
75100 6.6186671706e+00 -6.3192704533e-05 1.7250928347e+00 -2.9879484375e+00 1.7250928347e+00 2.9879484375e+00 
75200 6.6186671723e+00 -6.2166200615e-05 1.7250928347e+00 -2.9879484375e+00 1.7250928347e+00 2.9879484375e+00 
75300 6.6186671741e+00 -6.1080899569e-05 1.7250928347e+00 -2.9879484375e+00 1.7250928347e+00 2.9879484375e+00 
75400 6.6186671760e+00 -5.9938340813e-05 1.7250928347e+00 -2.9879484375e+00 1.7250928347e+00 2.9879484375e+00 
75500 6.6186671780e+00 -5.8740065788e-05 1.7250928347e+00 -2.9879484375e+00 1.7250928347e+00 2.9879484375e+00 
75600 6.6186671801e+00 -5.7487617841e-05 1.7250928347e+00 -2.9879484375e+00 1.7250928347e+00 2.9879484375e+00 
75700 6.6186671823e+00 -5.6182542090e-05 1.7250928347e+00 -2.9879484375e+00 1.7250928347e+00 2.9879484375e+00 
75800 6.6186671846e+00 -5.4826385254e-05 1.7250928347e+00 -2.9879484375e+00 1.7250928347e+00 2.9879484375e+00 
75900 6.6186671870e+00 -5.3420695451e-05 1.7250928347e+00 -2.9879484375e+00 1.7250928347e+00 2.9879484375e+00 
76000 6.6186671894e+00 -5.1967021967e-05 1.7250928347e+00 -2.9879484375e+00 1.7250928347e+00 2.9879484375e+00 
76100 6.6186671919e+00 -5.0466915011e-05 1.7250928347e+00 -2.9879484375e+00 1.7250928347e+00 2.9879484375e+00 
76200 6.6186671945e+00 -4.8921925418e-05 1.7250928347e+00 -2.9879484375e+00 1.7250928347e+00 2.9879484375e+00 
76300 6.6186671971e+00 -4.7333604351e-05 1.7250928347e+00 -2.9879484375e+00 1.7250928347e+00 2.9879484375e+00 
76400 6.6186671997e+00 -4.5703502969e-05 1.7250928347e+00 -2.9879484375e+00 1.7250928347e+00 2.9879484375e+00 
76500 6.6186672024e+00 -4.4033172053e-05 1.7250928347e+00 -2.9879484375e+00 1.7250928347e+00 2.9879484375e+00 
76600 6.6186672051e+00 -4.2324161639e-05 1.7250928347e+00 -2.9879484375e+00 1.7250928347e+00 2.9879484375e+00 
76700 6.6186672079e+00 -4.0578020597e-05 1.7250928347e+00 -2.9879484375e+00 1.7250928347e+00 2.9879484375e+00 
76800 6.6186672107e+00 -3.8796296211e-05 1.7250928347e+00 -2.9879484375e+00 1.7250928347e+00 2.9879484375e+00 
76900 6.6186672135e+00 -3.6980533719e-05 1.7250928347e+00 -2.9879484375e+00 1.7250928347e+00 2.9879484375e+00 
77000 6.6186672163e+00 -3.5132275848e-05 1.7250928347e+00 -2.9879484375e+00 1.7250928347e+00 2.9879484375e+00 
77100 6.6186672191e+00 -3.3253062312e-05 1.7250928347e+00 -2.9879484375e+00 1.7250928347e+00 2.9879484375e+00 
77200 6.6186672219e+00 -3.1344429318e-05 1.7250928347e+00 -2.9879484375e+00 1.7250928347e+00 2.9879484375e+00 
77300 6.6186672247e+00 -2.9407909019e-05 1.7250928347e+00 -2.9879484375e+00 1.7250928347e+00 2.9879484375e+00 
77400 6.6186672274e+00 -2.7445028983e-05 1.7250928347e+00 -2.9879484375e+00 1.7250928347e+00 2.9879484375e+00 
77500 6.6186672302e+00 -2.5457311621e-05 1.7250928347e+00 -2.9879484375e+00 1.7250928347e+00 2.9879484375e+00 
77600 6.6186672330e+00 -2.3446273626e-05 1.7250928347e+00 -2.9879484375e+00 1.7250928347e+00 2.9879484375e+00 
77700 6.6186672357e+00 -2.1413425374e-05 1.7250928347e+00 -2.9879484375e+00 1.7250928347e+00 2.9879484375e+00 
77800 6.6186672384e+00 -1.9360270321e-05 1.7250928347e+00 -2.9879484375e+00 1.7250928347e+00 2.9879484375e+00 
77900 6.6186672410e+00 -1.7288304413e-05 1.7250928347e+00 -2.9879484375e+00 1.7250928347e+00 2.9879484375e+00 
78000 6.6186672436e+00 -1.5199015433e-05 1.7250928347e+00 -2.9879484375e+00 1.7250928347e+00 2.9879484375e+00 
78100 6.6186672462e+00 -1.3093882406e-05 1.7250928347e+00 -2.9879484375e+00 1.7250928347e+00 2.9879484375e+00 
78200 6.6186672487e+00 -1.0974374932e-05 1.7250928347e+00 -2.9879484375e+00 1.7250928347e+00 2.9879484375e+00 
78300 6.6186672512e+00 -8.8419525658e-06 1.7250928347e+00 -2.9879484375e+00 1.7250928347e+00 2.9879484375e+00 
78400 6.6186672536e+00 -6.6980641558e-06 1.7250928347e+00 -2.9879484375e+00 1.7250928347e+00 2.9879484375e+00 
78500 6.6186672560e+00 -4.5441471972e-06 1.7250928347e+00 -2.9879484375e+00 1.7250928347e+00 2.9879484375e+00 
78600 6.6186672583e+00 -2.3816271750e-06 1.7250928347e+00 -2.9879484375e+00 1.7250928347e+00 2.9879484375e+00 
78700 6.6186672606e+00 -2.1191690939e-07 1.7250928347e+00 -2.9879484375e+00 1.7250928347e+00 2.9879484375e+00 
78800 6.6186672628e+00 1.9635840963e-06 1.7250928347e+00 -2.9879484375e+00 1.7250928347e+00 2.9879484375e+00 
78900 6.6186672649e+00 4.1434903218e-06 1.7250928347e+00 -2.9879484375e+00 1.7250928347e+00 2.9879484375e+00 
79000 6.6186672669e+00 6.3264308727e-06 1.7250928347e+00 -2.9879484375e+00 1.7250928347e+00 2.9879484375e+00 
79100 6.6186672689e+00 8.5110501369e-06 1.7250928347e+00 -2.9879484375e+00 1.7250928347e+00 2.9879484375e+00 
79200 6.6186672709e+00 1.0696008438e-05 1.7250928347e+00 -2.9879484375e+00 1.7250928347e+00 2.9879484375e+00 
79300 6.6186672727e+00 1.2879982656e-05 1.7250928347e+00 -2.9879484375e+00 1.7250928347e+00 2.9879484375e+00 
79400 6.6186672745e+00 1.5061666891e-05 1.7250928347e+00 -2.9879484375e+00 1.7250928347e+00 2.9879484375e+00 
79500 6.6186672762e+00 1.7239773067e-05 1.7250928347e+00 -2.9879484375e+00 1.7250928347e+00 2.9879484375e+00 
79600 6.6186672779e+00 1.9413031565e-05 1.7250928347e+00 -2.9879484375e+00 1.7250928347e+00 2.9879484375e+00 
79700 6.6186672795e+00 2.1580191832e-05 1.7250928347e+00 -2.9879484375e+00 1.7250928347e+00 2.9879484375e+00 
79800 6.6186672810e+00 2.3740022975e-05 1.7250928347e+00 -2.9879484375e+00 1.7250928347e+00 2.9879484375e+00 
79900 6.6186672824e+00 2.5891314359e-05 1.7250928347e+00 -2.9879484375e+00 1.7250928347e+00 2.9879484375e+00 
80000 6.6186672838e+00 2.8032876183e-05 1.7250928347e+00 -2.9879484375e+00 1.7250928347e+00 2.9879484375e+00 
80100 6.6186672851e+00 3.0163540033e-05 1.7250928347e+00 -2.9879484375e+00 1.7250928347e+00 2.9879484375e+00 
80200 6.6186672863e+00 3.2282159447e-05 1.7250928347e+00 -2.9879484375e+00 1.7250928347e+00 2.9879484375e+00 
80300 6.6186672875e+00 3.4387610447e-05 1.7250928347e+00 -2.9879484375e+00 1.7250928347e+00 2.9879484375e+00 
80400 6.6186672886e+00 3.6478792058e-05 1.7250928347e+00 -2.9879484375e+00 1.7250928347e+00 2.9879484375e+00 
80500 6.6186672897e+00 3.8554626809e-05 1.7250928347e+00 -2.9879484375e+00 1.7250928347e+00 2.9879484375e+00 
80600 6.6186672906e+00 4.0614061230e-05 1.7250928347e+00 -2.9879484375e+00 1.7250928347e+00 2.9879484375e+00 
80700 6.6186672916e+00 4.2656066312e-05 1.7250928347e+00 -2.9879484375e+00 1.7250928347e+00 2.9879484375e+00 
80800 6.6186672924e+00 4.4679637970e-05 1.7250928347e+00 -2.9879484375e+00 1.7250928347e+00 2.9879484375e+00 
80900 6.6186672933e+00 4.6683797466e-05 1.7250928347e+00 -2.9879484375e+00 1.7250928347e+00 2.9879484375e+00 
81000 6.6186672940e+00 4.8667591832e-05 1.7250928347e+00 -2.9879484375e+00 1.7250928347e+00 2.9879484375e+00 
81100 6.6186672947e+00 5.0630094259e-05 1.7250928347e+00 -2.9879484375e+00 1.7250928347e+00 2.9879484375e+00 
81200 6.6186672954e+00 5.2570404473e-05 1.7250928347e+00 -2.9879484375e+00 1.7250928347e+00 2.9879484375e+00 
81300 6.6186672960e+00 5.4487649086e-05 1.7250928347e+00 -2.9879484375e+00 1.7250928347e+00 2.9879484375e+00 
81400 6.6186672966e+00 5.6380981937e-05 1.7250928347e+00 -2.9879484375e+00 1.7250928347e+00 2.9879484375e+00 
81500 6.6186672971e+00 5.8249584384e-05 1.7250928347e+00 -2.9879484375e+00 1.7250928347e+00 2.9879484375e+00 
81600 6.6186672976e+00 6.0092665607e-05 1.7250928347e+00 -2.9879484375e+00 1.7250928347e+00 2.9879484375e+00 
81700 6.6186672980e+00 6.1909462875e-05 1.7250928347e+00 -2.9879484375e+00 1.7250928347e+00 2.9879484375e+00 
81800 6.6186672984e+00 6.3699241781e-05 1.7250928347e+00 -2.9879484375e+00 1.7250928347e+00 2.9879484375e+00 
81900 6.6186672988e+00 6.5461296464e-05 1.7250928347e+00 -2.9879484375e+00 1.7250928347e+00 2.9879484375e+00 
82000 6.6186672991e+00 6.7194949809e-05 1.7250928347e+00 -2.9879484375e+00 1.7250928347e+00 2.9879484375e+00 
82100 6.6186672995e+00 6.8899553621e-05 1.7250928347e+00 -2.9879484375e+00 1.7250928347e+00 2.9879484375e+00 
82200 6.6186672998e+00 7.0574488775e-05 1.7250928347e+00 -2.9879484375e+00 1.7250928347e+00 2.9879484375e+00 
82300 6.6186673000e+00 7.2219165342e-05 1.7250928347e+00 -2.9879484375e+00 1.7250928347e+00 2.9879484375e+00 
82400 6.6186673001e+00 7.1100191473e-05 1.7250907415e+00 -2.9879448120e+00 1.7250907415e+00 2.9879448120e+00 
82500 6.6186673001e+00 6.9969285982e-05 1.7250886808e+00 -2.9879412426e+00 1.7250886808e+00 2.9879412426e+00 
82600 6.6186673003e+00 7.1473750974e-05 1.7250886808e+00 -2.9879412426e+00 1.7250886808e+00 2.9879412426e+00 
82700 6.6186673003e+00 7.0239859009e-05 1.7250866092e+00 -2.9879376545e+00 1.7250866092e+00 2.9879376545e+00 
82800 6.6186673005e+00 7.1653897347e-05 1.7250866092e+00 -2.9879376545e+00 1.7250866092e+00 2.9879376545e+00 
82900 6.6186673004e+00 7.0321380140e-05 1.7250845323e+00 -2.9879340574e+00 1.7250845323e+00 2.9879340574e+00 
83000 6.6186673006e+00 7.1642303693e-05 1.7250845323e+00 -2.9879340574e+00 1.7250845323e+00 2.9879340574e+00 
83100 6.6186673005e+00 7.0215936724e-05 1.7250824559e+00 -2.9879304608e+00 1.7250824559e+00 2.9879304608e+00 
83200 6.6186673006e+00 7.1441530765e-05 1.7250824559e+00 -2.9879304608e+00 1.7250824559e+00 2.9879304608e+00 
83300 6.6186673006e+00 6.9926462340e-05 1.7250803852e+00 -2.9879268743e+00 1.7250803852e+00 2.9879268743e+00 
83400 6.6186673007e+00 7.1054976795e-05 1.7250803852e+00 -2.9879268743e+00 1.7250803852e+00 2.9879268743e+00 
83500 6.6186673006e+00 6.9456686963e-05 1.7250783257e+00 -2.9879233072e+00 1.7250783257e+00 2.9879233072e+00 
83600 6.6186673007e+00 7.0486826155e-05 1.7250783257e+00 -2.9879233072e+00 1.7250783257e+00 2.9879233072e+00 
83700 6.6186673008e+00 7.1478453869e-05 1.7250783257e+00 -2.9879233072e+00 1.7250783257e+00 2.9879233072e+00 
83800 6.6186673007e+00 6.9726833254e-05 1.7250762540e+00 -2.9879197188e+00 1.7250762540e+00 2.9879197188e+00 
83900 6.6186673009e+00 7.0619249328e-05 1.7250762540e+00 -2.9879197188e+00 1.7250762540e+00 2.9879197188e+00 
84000 6.6186673010e+00 7.1472963474e-05 1.7250762540e+00 -2.9879197188e+00 1.7250762540e+00 2.9879197188e+00 
84100 6.6186673009e+00 6.9583542180e-05 1.7250741824e+00 -2.9879161307e+00 1.7250741824e+00 2.9879161307e+00 
84200 6.6186673011e+00 7.0337985899e-05 1.7250741824e+00 -2.9879161307e+00 1.7250741824e+00 2.9879161307e+00 
84300 6.6186673012e+00 7.1053853659e-05 1.7250741824e+00 -2.9879161307e+00 1.7250741824e+00 2.9879161307e+00 
84400 6.6186673012e+00 6.9042661886e-05 1.7250721229e+00 -2.9879125637e+00 1.7250721229e+00 2.9879125637e+00 
84500 6.6186673014e+00 6.9659945754e-05 1.7250721229e+00 -2.9879125637e+00 1.7250721229e+00 2.9879125637e+00 
84600 6.6186673016e+00 7.0239081232e-05 1.7250721229e+00 -2.9879125637e+00 1.7250721229e+00 2.9879125637e+00 
84700 6.6186673018e+00 7.0780527829e-05 1.7250721229e+00 -2.9879125637e+00 1.7250721229e+00 2.9879125637e+00 
84800 6.6186673018e+00 6.8606241590e-05 1.7250700714e+00 -2.9879090103e+00 1.7250700714e+00 2.9879090103e+00 
84900 6.6186673021e+00 6.9051282878e-05 1.7250700714e+00 -2.9879090103e+00 1.7250700714e+00 2.9879090103e+00 
85000 6.6186673023e+00 6.9459378354e-05 1.7250700714e+00 -2.9879090103e+00 1.7250700714e+00 2.9879090103e+00 
85100 6.6186673026e+00 6.9831086446e-05 1.7250700714e+00 -2.9879090103e+00 1.7250700714e+00 2.9879090103e+00 
85200 6.6186673028e+00 7.0166975284e-05 1.7250700714e+00 -2.9879090103e+00 1.7250700714e+00 2.9879090103e+00 
85300 6.6186673031e+00 7.0467622367e-05 1.7250700714e+00 -2.9879090103e+00 1.7250700714e+00 2.9879090103e+00 
85400 6.6186673034e+00 7.0733614235e-05 1.7250700714e+00 -2.9879090103e+00 1.7250700714e+00 2.9879090103e+00 
85500 6.6186673036e+00 6.8288797514e-05 1.7250680213e+00 -2.9879054593e+00 1.7250680213e+00 2.9879054593e+00 
85600 6.6186673039e+00 6.8464832623e-05 1.7250680213e+00 -2.9879054593e+00 1.7250680213e+00 2.9879054593e+00 
85700 6.6186673042e+00 6.8607315326e-05 1.7250680213e+00 -2.9879054593e+00 1.7250680213e+00 2.9879054593e+00 
85800 6.6186673046e+00 6.8716916360e-05 1.7250680213e+00 -2.9879054593e+00 1.7250680213e+00 2.9879054593e+00 
85900 6.6186673050e+00 6.8794312395e-05 1.7250680213e+00 -2.9879054593e+00 1.7250680213e+00 2.9879054593e+00 
86000 6.6186673054e+00 6.8840185701e-05 1.7250680213e+00 -2.9879054593e+00 1.7250680213e+00 2.9879054593e+00 
86100 6.6186673058e+00 6.8855223757e-05 1.7250680213e+00 -2.9879054593e+00 1.7250680213e+00 2.9879054593e+00 
86200 6.6186673062e+00 6.8840118904e-05 1.7250680213e+00 -2.9879054593e+00 1.7250680213e+00 2.9879054593e+00 
86300 6.6186673066e+00 6.8795567971e-05 1.7250680213e+00 -2.9879054593e+00 1.7250680213e+00 2.9879054593e+00 
86400 6.6186673070e+00 6.8722271916e-05 1.7250680213e+00 -2.9879054593e+00 1.7250680213e+00 2.9879054593e+00 
86500 6.6186673075e+00 6.8620935442e-05 1.7250680213e+00 -2.9879054593e+00 1.7250680213e+00 2.9879054593e+00 
86600 6.6186673079e+00 6.8492266633e-05 1.7250680213e+00 -2.9879054593e+00 1.7250680213e+00 2.9879054593e+00 
86700 6.6186673084e+00 6.8336976590e-05 1.7250680213e+00 -2.9879054593e+00 1.7250680213e+00 2.9879054593e+00 
86800 6.6186673089e+00 6.8155779044e-05 1.7250680213e+00 -2.9879054593e+00 1.7250680213e+00 2.9879054593e+00 
86900 6.6186673094e+00 6.7949389999e-05 1.7250680213e+00 -2.9879054593e+00 1.7250680213e+00 2.9879054593e+00 
87000 6.6186673099e+00 6.7718527348e-05 1.7250680213e+00 -2.9879054593e+00 1.7250680213e+00 2.9879054593e+00 
87100 6.6186673103e+00 6.7463910497e-05 1.7250680213e+00 -2.9879054593e+00 1.7250680213e+00 2.9879054593e+00 
87200 6.6186673109e+00 6.7186260004e-05 1.7250680213e+00 -2.9879054593e+00 1.7250680213e+00 2.9879054593e+00 
87300 6.6186673114e+00 6.6886297200e-05 1.7250680213e+00 -2.9879054593e+00 1.7250680213e+00 2.9879054593e+00 
87400 6.6186673119e+00 6.6564743812e-05 1.7250680213e+00 -2.9879054593e+00 1.7250680213e+00 2.9879054593e+00 
87500 6.6186673124e+00 6.6222321596e-05 1.7250680213e+00 -2.9879054593e+00 1.7250680213e+00 2.9879054593e+00 
87600 6.6186673129e+00 6.5859751965e-05 1.7250680213e+00 -2.9879054593e+00 1.7250680213e+00 2.9879054593e+00 
87700 6.6186673134e+00 6.5477755620e-05 1.7250680213e+00 -2.9879054593e+00 1.7250680213e+00 2.9879054593e+00 
87800 6.6186673139e+00 6.5077052184e-05 1.7250680213e+00 -2.9879054593e+00 1.7250680213e+00 2.9879054593e+00 
87900 6.6186673144e+00 6.4658359833e-05 1.7250680213e+00 -2.9879054593e+00 1.7250680213e+00 2.9879054593e+00 
88000 6.6186673150e+00 6.4222394937e-05 1.7250680213e+00 -2.9879054593e+00 1.7250680213e+00 2.9879054593e+00 
88100 6.6186673155e+00 6.3769871686e-05 1.7250680213e+00 -2.9879054593e+00 1.7250680213e+00 2.9879054593e+00 
88200 6.6186673160e+00 6.3301501749e-05 1.7250680213e+00 -2.9879054593e+00 1.7250680213e+00 2.9879054593e+00 
88300 6.6186673165e+00 6.2817993902e-05 1.7250680213e+00 -2.9879054593e+00 1.7250680213e+00 2.9879054593e+00 
88400 6.6186673170e+00 6.2320053685e-05 1.7250680213e+00 -2.9879054593e+00 1.7250680213e+00 2.9879054593e+00 
88500 6.6186673175e+00 6.1808383043e-05 1.7250680213e+00 -2.9879054593e+00 1.7250680213e+00 2.9879054593e+00 
88600 6.6186673180e+00 6.1283679988e-05 1.7250680213e+00 -2.9879054593e+00 1.7250680213e+00 2.9879054593e+00 
88700 6.6186673185e+00 6.0746638255e-05 1.7250680213e+00 -2.9879054593e+00 1.7250680213e+00 2.9879054593e+00 
88800 6.6186673190e+00 6.0197946958e-05 1.7250680213e+00 -2.9879054593e+00 1.7250680213e+00 2.9879054593e+00 
88900 6.6186673195e+00 5.9638290263e-05 1.7250680213e+00 -2.9879054593e+00 1.7250680213e+00 2.9879054593e+00 
89000 6.6186673199e+00 5.9068347055e-05 1.7250680213e+00 -2.9879054593e+00 1.7250680213e+00 2.9879054593e+00 
89100 6.6186673204e+00 5.8488790613e-05 1.7250680213e+00 -2.9879054593e+00 1.7250680213e+00 2.9879054593e+00 
89200 6.6186673209e+00 5.7900288291e-05 1.7250680213e+00 -2.9879054593e+00 1.7250680213e+00 2.9879054593e+00 
89300 6.6186673213e+00 5.7303501209e-05 1.7250680213e+00 -2.9879054593e+00 1.7250680213e+00 2.9879054593e+00 
89400 6.6186673218e+00 5.6699083937e-05 1.7250680213e+00 -2.9879054593e+00 1.7250680213e+00 2.9879054593e+00 
89500 6.6186673222e+00 5.6087684197e-05 1.7250680213e+00 -2.9879054593e+00 1.7250680213e+00 2.9879054593e+00 
89600 6.6186673226e+00 5.5469942567e-05 1.7250680213e+00 -2.9879054593e+00 1.7250680213e+00 2.9879054593e+00 
89700 6.6186673230e+00 5.4846492183e-05 1.7250680213e+00 -2.9879054593e+00 1.7250680213e+00 2.9879054593e+00 
89800 6.6186673234e+00 5.4217958469e-05 1.7250680213e+00 -2.9879054593e+00 1.7250680213e+00 2.9879054593e+00 
89900 6.6186673238e+00 5.3584958848e-05 1.7250680213e+00 -2.9879054593e+00 1.7250680213e+00 2.9879054593e+00 
90000 6.6186673242e+00 5.2948102476e-05 1.7250680213e+00 -2.9879054593e+00 1.7250680213e+00 2.9879054593e+00 
90100 6.6186673246e+00 5.2307989980e-05 1.7250680213e+00 -2.9879054593e+00 1.7250680213e+00 2.9879054593e+00 
90200 6.6186673250e+00 5.1665213202e-05 1.7250680213e+00 -2.9879054593e+00 1.7250680213e+00 2.9879054593e+00 
90300 6.6186673253e+00 5.1020354947e-05 1.7250680213e+00 -2.9879054593e+00 1.7250680213e+00 2.9879054593e+00 
90400 6.6186673257e+00 5.0373988748e-05 1.7250680213e+00 -2.9879054593e+00 1.7250680213e+00 2.9879054593e+00 
90500 6.6186673260e+00 4.9726678623e-05 1.7250680213e+00 -2.9879054593e+00 1.7250680213e+00 2.9879054593e+00 
90600 6.6186673263e+00 4.9078978867e-05 1.7250680213e+00 -2.9879054593e+00 1.7250680213e+00 2.9879054593e+00 
90700 6.6186673266e+00 4.8431433817e-05 1.7250680213e+00 -2.9879054593e+00 1.7250680213e+00 2.9879054593e+00 
90800 6.6186673269e+00 4.7784577655e-05 1.7250680213e+00 -2.9879054593e+00 1.7250680213e+00 2.9879054593e+00 
90900 6.6186673272e+00 4.7138934207e-05 1.7250680213e+00 -2.9879054593e+00 1.7250680213e+00 2.9879054593e+00 
91000 6.6186673275e+00 4.6495016742e-05 1.7250680213e+00 -2.9879054593e+00 1.7250680213e+00 2.9879054593e+00 
91100 6.6186673278e+00 4.5853327799e-05 1.7250680213e+00 -2.9879054593e+00 1.7250680213e+00 2.9879054593e+00 
91200 6.6186673280e+00 4.5214359011e-05 1.7250680213e+00 -2.9879054593e+00 1.7250680213e+00 2.9879054593e+00 
91300 6.6186673283e+00 4.4578590930e-05 1.7250680213e+00 -2.9879054593e+00 1.7250680213e+00 2.9879054593e+00 
91400 6.6186673285e+00 4.3946492887e-05 1.7250680213e+00 -2.9879054593e+00 1.7250680213e+00 2.9879054593e+00 
91500 6.6186673288e+00 4.3318522830e-05 1.7250680213e+00 -2.9879054593e+00 1.7250680213e+00 2.9879054593e+00 
91600 6.6186673290e+00 4.2695127190e-05 1.7250680213e+00 -2.9879054593e+00 1.7250680213e+00 2.9879054593e+00 
91700 6.6186673292e+00 4.2076740755e-05 1.7250680213e+00 -2.9879054593e+00 1.7250680213e+00 2.9879054593e+00 
91800 6.6186673294e+00 4.1463786543e-05 1.7250680213e+00 -2.9879054593e+00 1.7250680213e+00 2.9879054593e+00 
91900 6.6186673296e+00 4.0856675698e-05 1.7250680213e+00 -2.9879054593e+00 1.7250680213e+00 2.9879054593e+00 
92000 6.6186673298e+00 4.0255807386e-05 1.7250680213e+00 -2.9879054593e+00 1.7250680213e+00 2.9879054593e+00 
92100 6.6186673300e+00 3.9661568692e-05 1.7250680213e+00 -2.9879054593e+00 1.7250680213e+00 2.9879054593e+00 
92200 6.6186673302e+00 3.9074334557e-05 1.7250680213e+00 -2.9879054593e+00 1.7250680213e+00 2.9879054593e+00 
92300 6.6186673304e+00 3.8494467689e-05 1.7250680213e+00 -2.9879054593e+00 1.7250680213e+00 2.9879054593e+00 
92400 6.6186673305e+00 3.7922318503e-05 1.7250680213e+00 -2.9879054593e+00 1.7250680213e+00 2.9879054593e+00 
92500 6.6186673307e+00 3.7358225063e-05 1.7250680213e+00 -2.9879054593e+00 1.7250680213e+00 2.9879054593e+00 
92600 6.6186673308e+00 3.6802513039e-05 1.7250680213e+00 -2.9879054593e+00 1.7250680213e+00 2.9879054593e+00 
92700 6.6186673310e+00 3.6255495669e-05 1.7250680213e+00 -2.9879054593e+00 1.7250680213e+00 2.9879054593e+00 
92800 6.6186673311e+00 3.5717473732e-05 1.7250680213e+00 -2.9879054593e+00 1.7250680213e+00 2.9879054593e+00 
92900 6.6186673312e+00 3.5188735530e-05 1.7250680213e+00 -2.9879054593e+00 1.7250680213e+00 2.9879054593e+00 
93000 6.6186673314e+00 3.4669556877e-05 1.7250680213e+00 -2.9879054593e+00 1.7250680213e+00 2.9879054593e+00 
93100 6.6186673315e+00 3.4160201093e-05 1.7250680213e+00 -2.9879054593e+00 1.7250680213e+00 2.9879054593e+00 
93200 6.6186673316e+00 3.3660919030e-05 1.7250680213e+00 -2.9879054593e+00 1.7250680213e+00 2.9879054593e+00 
93300 6.6186673317e+00 3.3171949067e-05 1.7250680213e+00 -2.9879054593e+00 1.7250680213e+00 2.9879054593e+00 
93400 6.6186673318e+00 3.2693517152e-05 1.7250680213e+00 -2.9879054593e+00 1.7250680213e+00 2.9879054593e+00 
93500 6.6186673320e+00 3.2225836832e-05 1.7250680213e+00 -2.9879054593e+00 1.7250680213e+00 2.9879054593e+00 
93600 6.6186673321e+00 3.1769109296e-05 1.7250680213e+00 -2.9879054593e+00 1.7250680213e+00 2.9879054593e+00 
93700 6.6186673322e+00 3.1323523427e-05 1.7250680213e+00 -2.9879054593e+00 1.7250680213e+00 2.9879054593e+00 
93800 6.6186673323e+00 3.0889255862e-05 1.7250680213e+00 -2.9879054593e+00 1.7250680213e+00 2.9879054593e+00 
93900 6.6186673324e+00 3.0466471056e-05 1.7250680213e+00 -2.9879054593e+00 1.7250680213e+00 2.9879054593e+00 
94000 6.6186673324e+00 3.0055321377e-05 1.7250680213e+00 -2.9879054593e+00 1.7250680213e+00 2.9879054593e+00 
94100 6.6186673325e+00 2.9655947161e-05 1.7250680213e+00 -2.9879054593e+00 1.7250680213e+00 2.9879054593e+00 
94200 6.6186673326e+00 2.9268476827e-05 1.7250680213e+00 -2.9879054593e+00 1.7250680213e+00 2.9879054593e+00 
94300 6.6186673327e+00 2.8893026974e-05 1.7250680213e+00 -2.9879054593e+00 1.7250680213e+00 2.9879054593e+00 
94400 6.6186673328e+00 2.8529702480e-05 1.7250680213e+00 -2.9879054593e+00 1.7250680213e+00 2.9879054593e+00 
94500 6.6186673329e+00 2.8178596619e-05 1.7250680213e+00 -2.9879054593e+00 1.7250680213e+00 2.9879054593e+00 
94600 6.6186673330e+00 2.7839791191e-05 1.7250680213e+00 -2.9879054593e+00 1.7250680213e+00 2.9879054593e+00 
94700 6.6186673331e+00 2.7513356641e-05 1.7250680213e+00 -2.9879054593e+00 1.7250680213e+00 2.9879054593e+00 
94800 6.6186673332e+00 2.7199352202e-05 1.7250680213e+00 -2.9879054593e+00 1.7250680213e+00 2.9879054593e+00 
94900 6.6186673332e+00 2.6897826028e-05 1.7250680213e+00 -2.9879054593e+00 1.7250680213e+00 2.9879054593e+00 
95000 6.6186673333e+00 2.6608815352e-05 1.7250680213e+00 -2.9879054593e+00 1.7250680213e+00 2.9879054593e+00 
95100 6.6186673334e+00 2.6332346643e-05 1.7250680213e+00 -2.9879054593e+00 1.7250680213e+00 2.9879054593e+00 
95200 6.6186673335e+00 2.6068435754e-05 1.7250680213e+00 -2.9879054593e+00 1.7250680213e+00 2.9879054593e+00 
95300 6.6186673336e+00 2.5817088099e-05 1.7250680213e+00 -2.9879054593e+00 1.7250680213e+00 2.9879054593e+00 
95400 6.6186673337e+00 2.5578298824e-05 1.7250680213e+00 -2.9879054593e+00 1.7250680213e+00 2.9879054593e+00 
95500 6.6186673338e+00 2.5352052983e-05 1.7250680213e+00 -2.9879054593e+00 1.7250680213e+00 2.9879054593e+00 
95600 6.6186673339e+00 2.5138325723e-05 1.7250680213e+00 -2.9879054593e+00 1.7250680213e+00 2.9879054593e+00 
95700 6.6186673339e+00 2.4937082475e-05 1.7250680213e+00 -2.9879054593e+00 1.7250680213e+00 2.9879054593e+00 
95800 6.6186673340e+00 2.4748279137e-05 1.7250680213e+00 -2.9879054593e+00 1.7250680213e+00 2.9879054593e+00 
95900 6.6186673341e+00 2.4571862279e-05 1.7250680213e+00 -2.9879054593e+00 1.7250680213e+00 2.9879054593e+00 
96000 6.6186673342e+00 2.4407769347e-05 1.7250680213e+00 -2.9879054593e+00 1.7250680213e+00 2.9879054593e+00 
96100 6.6186673343e+00 2.4255928863e-05 1.7250680213e+00 -2.9879054593e+00 1.7250680213e+00 2.9879054593e+00 
96200 6.6186673344e+00 2.4116260637e-05 1.7250680213e+00 -2.9879054593e+00 1.7250680213e+00 2.9879054593e+00 
96300 6.6186673345e+00 2.3988675987e-05 1.7250680213e+00 -2.9879054593e+00 1.7250680213e+00 2.9879054593e+00 
96400 6.6186673346e+00 2.3873077941e-05 1.7250680213e+00 -2.9879054593e+00 1.7250680213e+00 2.9879054593e+00 
96500 6.6186673347e+00 2.3769361473e-05 1.7250680213e+00 -2.9879054593e+00 1.7250680213e+00 2.9879054593e+00 
96600 6.6186673348e+00 2.3677413722e-05 1.7250680213e+00 -2.9879054593e+00 1.7250680213e+00 2.9879054593e+00 
96700 6.6186673349e+00 2.3597114209e-05 1.7250680213e+00 -2.9879054593e+00 1.7250680213e+00 2.9879054593e+00 
96800 6.6186673350e+00 2.3528335080e-05 1.7250680213e+00 -2.9879054593e+00 1.7250680213e+00 2.9879054593e+00 
96900 6.6186673351e+00 2.3470941328e-05 1.7250680213e+00 -2.9879054593e+00 1.7250680213e+00 2.9879054593e+00 
97000 6.6186673352e+00 2.3424791025e-05 1.7250680213e+00 -2.9879054593e+00 1.7250680213e+00 2.9879054593e+00 
97100 6.6186673353e+00 2.3389735563e-05 1.7250680213e+00 -2.9879054593e+00 1.7250680213e+00 2.9879054593e+00 
97200 6.6186673354e+00 2.3365619886e-05 1.7250680213e+00 -2.9879054593e+00 1.7250680213e+00 2.9879054593e+00 
97300 6.6186673355e+00 2.3352282734e-05 1.7250680213e+00 -2.9879054593e+00 1.7250680213e+00 2.9879054593e+00 
97400 6.6186673356e+00 2.3349556876e-05 1.7250680213e+00 -2.9879054593e+00 1.7250680213e+00 2.9879054593e+00 
97500 6.6186673357e+00 2.3357269355e-05 1.7250680213e+00 -2.9879054593e+00 1.7250680213e+00 2.9879054593e+00 
97600 6.6186673358e+00 2.3375241719e-05 1.7250680213e+00 -2.9879054593e+00 1.7250680213e+00 2.9879054593e+00 
97700 6.6186673359e+00 2.3403290286e-05 1.7250680213e+00 -2.9879054593e+00 1.7250680213e+00 2.9879054593e+00 
97800 6.6186673360e+00 2.3441226357e-05 1.7250680213e+00 -2.9879054593e+00 1.7250680213e+00 2.9879054593e+00 
97900 6.6186673361e+00 2.3488856484e-05 1.7250680213e+00 -2.9879054593e+00 1.7250680213e+00 2.9879054593e+00 
98000 6.6186673362e+00 2.3545982691e-05 1.7250680213e+00 -2.9879054593e+00 1.7250680213e+00 2.9879054593e+00 
98100 6.6186673363e+00 2.3612402736e-05 1.7250680213e+00 -2.9879054593e+00 1.7250680213e+00 2.9879054593e+00 
98200 6.6186673364e+00 2.3687910333e-05 1.7250680213e+00 -2.9879054593e+00 1.7250680213e+00 2.9879054593e+00 
98300 6.6186673365e+00 2.3772295413e-05 1.7250680213e+00 -2.9879054593e+00 1.7250680213e+00 2.9879054593e+00 
98400 6.6186673366e+00 2.3865344342e-05 1.7250680213e+00 -2.9879054593e+00 1.7250680213e+00 2.9879054593e+00 
98500 6.6186673367e+00 2.3966840185e-05 1.7250680213e+00 -2.9879054593e+00 1.7250680213e+00 2.9879054593e+00 
98600 6.6186673368e+00 2.4076562921e-05 1.7250680213e+00 -2.9879054593e+00 1.7250680213e+00 2.9879054593e+00 
98700 6.6186673370e+00 2.4194289692e-05 1.7250680213e+00 -2.9879054593e+00 1.7250680213e+00 2.9879054593e+00 
98800 6.6186673371e+00 2.4319795039e-05 1.7250680213e+00 -2.9879054593e+00 1.7250680213e+00 2.9879054593e+00 
98900 6.6186673372e+00 2.4452851126e-05 1.7250680213e+00 -2.9879054593e+00 1.7250680213e+00 2.9879054593e+00 
99000 6.6186673373e+00 2.4593227982e-05 1.7250680213e+00 -2.9879054593e+00 1.7250680213e+00 2.9879054593e+00 
99100 6.6186673374e+00 2.4740693723e-05 1.7250680213e+00 -2.9879054593e+00 1.7250680213e+00 2.9879054593e+00 
99200 6.6186673375e+00 2.4895014779e-05 1.7250680213e+00 -2.9879054593e+00 1.7250680213e+00 2.9879054593e+00 
99300 6.6186673376e+00 2.5055956118e-05 1.7250680213e+00 -2.9879054593e+00 1.7250680213e+00 2.9879054593e+00 
99400 6.6186673377e+00 2.5223281478e-05 1.7250680213e+00 -2.9879054593e+00 1.7250680213e+00 2.9879054593e+00 
99500 6.6186673378e+00 2.5396753572e-05 1.7250680213e+00 -2.9879054593e+00 1.7250680213e+00 2.9879054593e+00 
99600 6.6186673379e+00 2.5576134313e-05 1.7250680213e+00 -2.9879054593e+00 1.7250680213e+00 2.9879054593e+00 
99700 6.6186673380e+00 2.5761185020e-05 1.7250680213e+00 -2.9879054593e+00 1.7250680213e+00 2.9879054593e+00 
99800 6.6186673381e+00 2.5951666641e-05 1.7250680213e+00 -2.9879054593e+00 1.7250680213e+00 2.9879054593e+00 
99900 6.6186673382e+00 2.6147339950e-05 1.7250680213e+00 -2.9879054593e+00 1.7250680213e+00 2.9879054593e+00 
100000 6.6186673383e+00 2.6347965745e-05 1.7250680213e+00 -2.9879054593e+00 1.7250680213e+00 2.9879054593e+00 
100100 6.6186673384e+00 2.6553305064e-05 1.7250680213e+00 -2.9879054593e+00 1.7250680213e+00 2.9879054593e+00 
100200 6.6186673385e+00 2.6763119363e-05 1.7250680213e+00 -2.9879054593e+00 1.7250680213e+00 2.9879054593e+00 
100300 6.6186673385e+00 2.6977170730e-05 1.7250680213e+00 -2.9879054593e+00 1.7250680213e+00 2.9879054593e+00 
100400 6.6186673386e+00 2.7195222055e-05 1.7250680213e+00 -2.9879054593e+00 1.7250680213e+00 2.9879054593e+00 
100500 6.6186673387e+00 2.7417037219e-05 1.7250680213e+00 -2.9879054593e+00 1.7250680213e+00 2.9879054593e+00 
100600 6.6186673388e+00 2.7642381281e-05 1.7250680213e+00 -2.9879054593e+00 1.7250680213e+00 2.9879054593e+00 
100700 6.6186673389e+00 2.7871020651e-05 1.7250680213e+00 -2.9879054593e+00 1.7250680213e+00 2.9879054593e+00 
100800 6.6186673390e+00 2.8102723260e-05 1.7250680213e+00 -2.9879054593e+00 1.7250680213e+00 2.9879054593e+00 
100900 6.6186673391e+00 2.8337258733e-05 1.7250680213e+00 -2.9879054593e+00 1.7250680213e+00 2.9879054593e+00 
101000 6.6186673391e+00 2.8574398546e-05 1.7250680213e+00 -2.9879054593e+00 1.7250680213e+00 2.9879054593e+00 
101100 6.6186673392e+00 2.8813916196e-05 1.7250680213e+00 -2.9879054593e+00 1.7250680213e+00 2.9879054593e+00 
101200 6.6186673393e+00 2.9055587337e-05 1.7250680213e+00 -2.9879054593e+00 1.7250680213e+00 2.9879054593e+00 
101300 6.6186673394e+00 2.9299189951e-05 1.7250680213e+00 -2.9879054593e+00 1.7250680213e+00 2.9879054593e+00 
101400 6.6186673395e+00 2.9544504485e-05 1.7250680213e+00 -2.9879054593e+00 1.7250680213e+00 2.9879054593e+00 
101500 6.6186673395e+00 2.9791313987e-05 1.7250680213e+00 -2.9879054593e+00 1.7250680213e+00 2.9879054593e+00 
101600 6.6186673396e+00 3.0039404249e-05 1.7250680213e+00 -2.9879054593e+00 1.7250680213e+00 2.9879054593e+00 
101700 6.6186673397e+00 3.0288563931e-05 1.7250680213e+00 -2.9879054593e+00 1.7250680213e+00 2.9879054593e+00 
101800 6.6186673397e+00 3.0538584699e-05 1.7250680213e+00 -2.9879054593e+00 1.7250680213e+00 2.9879054593e+00 
101900 6.6186673398e+00 3.0789261338e-05 1.7250680213e+00 -2.9879054593e+00 1.7250680213e+00 2.9879054593e+00 
102000 6.6186673399e+00 3.1040391868e-05 1.7250680213e+00 -2.9879054593e+00 1.7250680213e+00 2.9879054593e+00 
102100 6.6186673399e+00 3.1291777659e-05 1.7250680213e+00 -2.9879054593e+00 1.7250680213e+00 2.9879054593e+00 
102200 6.6186673400e+00 3.1543223547e-05 1.7250680213e+00 -2.9879054593e+00 1.7250680213e+00 2.9879054593e+00 
102300 6.6186673401e+00 3.1794537915e-05 1.7250680213e+00 -2.9879054593e+00 1.7250680213e+00 2.9879054593e+00 
102400 6.6186673401e+00 3.2045532814e-05 1.7250680213e+00 -2.9879054593e+00 1.7250680213e+00 2.9879054593e+00 
102500 6.6186673402e+00 3.2296024033e-05 1.7250680213e+00 -2.9879054593e+00 1.7250680213e+00 2.9879054593e+00 
102600 6.6186673402e+00 3.2545831208e-05 1.7250680213e+00 -2.9879054593e+00 1.7250680213e+00 2.9879054593e+00 
102700 6.6186673403e+00 3.2794777892e-05 1.7250680213e+00 -2.9879054593e+00 1.7250680213e+00 2.9879054593e+00 
102800 6.6186673404e+00 3.3042691638e-05 1.7250680213e+00 -2.9879054593e+00 1.7250680213e+00 2.9879054593e+00 
102900 6.6186673404e+00 3.3289404062e-05 1.7250680213e+00 -2.9879054593e+00 1.7250680213e+00 2.9879054593e+00 
103000 6.6186673405e+00 3.3534750929e-05 1.7250680213e+00 -2.9879054593e+00 1.7250680213e+00 2.9879054593e+00 
103100 6.6186673405e+00 3.3778572199e-05 1.7250680213e+00 -2.9879054593e+00 1.7250680213e+00 2.9879054593e+00 
103200 6.6186673406e+00 3.4020712094e-05 1.7250680213e+00 -2.9879054593e+00 1.7250680213e+00 2.9879054593e+00 
103300 6.6186673406e+00 3.4261019158e-05 1.7250680213e+00 -2.9879054593e+00 1.7250680213e+00 2.9879054593e+00 
103400 6.6186673407e+00 3.4499346291e-05 1.7250680213e+00 -2.9879054593e+00 1.7250680213e+00 2.9879054593e+00 
103500 6.6186673407e+00 3.4735550807e-05 1.7250680213e+00 -2.9879054593e+00 1.7250680213e+00 2.9879054593e+00 
103600 6.6186673407e+00 3.4969494465e-05 1.7250680213e+00 -2.9879054593e+00 1.7250680213e+00 2.9879054593e+00 
103700 6.6186673408e+00 3.5201043509e-05 1.7250680213e+00 -2.9879054593e+00 1.7250680213e+00 2.9879054593e+00 
103800 6.6186673408e+00 3.5430068694e-05 1.7250680213e+00 -2.9879054593e+00 1.7250680213e+00 2.9879054593e+00 
103900 6.6186673409e+00 3.5656445325e-05 1.7250680213e+00 -2.9879054593e+00 1.7250680213e+00 2.9879054593e+00 
104000 6.6186673409e+00 3.5759655940e-05 1.7250680213e+00 -2.9879054593e+00 1.7250680213e+00 2.9879054593e+00 
104000 6.6186673409e+00 3.5759655940e-05 1.7250680213e+00 -2.9879054593e+00 1.7250680213e+00 2.9879054593e+00 
